25
-6.3260104907021616e+02 frame 48   xyz file generated by TeraChem
    Fe     0.0366771911   -0.0544053359    0.0204294188
     N     2.1383464101   -0.1564644878   -0.2027569338
     H     2.6810322725    0.5061763521    0.3671210198
     H     2.5635024249   -1.0771212120   -0.0288553762
     H     2.4080111788    0.0629074312   -1.1719964655
     N    -0.8776751646   -1.3285049571   -1.4190396715
     H    -0.4270810394   -1.2776110526   -2.3424545491
     H    -0.8345306380   -2.3234207429   -1.1624276894
     H    -1.8717646762   -1.1517127583   -1.6112494098
     N    -0.6770651551    1.8784867625   -0.4944749555
     H    -0.2150509976    2.2624929963   -1.3297709801
     H    -1.6810292344    1.9497978522   -0.7037760543
     H    -0.5126380217    2.5809148347    0.2387094910
     C    -1.5316448328   -1.2483150503    4.5193658703
     C    -2.4510333226   -0.8912937932    3.4890952454
     C    -1.9423373909   -0.5639441563    2.2460377972
     N    -0.6013282208   -0.5681761449    1.9644737673
     C     0.2763971395   -0.9088977548    2.9467517851
     C    -0.1306454627   -1.2537040802    4.2291499553
     C    -1.9879559907   -1.5906251365    5.8032353402
     H    -3.5219497824   -0.8752483703    3.6729340743
     H    -2.6175283878   -0.2849424237    1.4431418586
     H     1.3335186307   -0.9049099676    2.7021442078
     H     0.5987631722   -1.5197006674    4.9899757694
     N    -2.3704255015   -1.8806325573    6.8881816396
