25
-6.7556141554167675e+02 frame 104   xyz file generated by TeraChem
    Co     0.0031834062    0.0021123912   -0.0017099983
     C     1.7144294937   -0.8357602031   -0.2098943552
     N     2.7480520434   -1.3417451273   -0.3350569055
     C     4.0284651128   -1.9679942494   -0.4866892798
     H     4.0902834227   -2.4096532639   -1.4839901649
     H     4.1321616280   -2.7437005242    0.2759850073
     H     4.8056729110   -1.2098273045   -0.3615222118
     C    -0.3579491575   -0.2795842317   -1.9186351620
     N    -0.5687398500   -0.4448283494   -3.0440835078
     C    -0.8306338190   -0.6487111341   -4.4381927560
     H    -1.8284908927   -1.0811719100   -4.5469482951
     H    -0.0763238830   -1.3264275787   -4.8445667240
     H    -0.7827858194    0.3187406900   -4.9451994285
     C    -1.7080307348    0.8399875805    0.2068341048
     N    -2.7418793278    1.3452394189    0.3330851346
     C    -4.0232362418    1.9687040367    0.4877474342
     H    -4.7719880979    1.1905107381    0.6565224749
     H    -4.2566037898    2.5247881315   -0.4233935091
     H    -3.9852240167    2.6469717257    1.3434486911
     C     0.3615309712    0.2800761700    1.9162968582
     N     0.5680912374    0.4423256467    3.0429636139
     C     0.8226139765    0.6438346626    4.4388175353
     H     1.2934210056    1.6222664327    4.5672749046
     H     1.4902985924   -0.1453361129    4.7927355350
     H    -0.1271487664    0.6088788440    4.9779541104
