45
-1.0961645115841172e+03 frame 50   xyz file generated by TeraChem
    Mn    -0.0291738763    0.0002597948    0.0359618384
     C     4.5916574314    0.7757965532    0.5966156991
     C     3.8037530284    1.6417189669   -0.1672177103
     C     2.4460903016    1.3855482642   -0.2936001859
     N     1.8584572327    0.3145444015    0.3123617317
     C     2.6269219209   -0.5294066231    1.0607320748
     C     3.9886672916   -0.3264976841    1.2171114454
     H     5.6573683992    0.9550061040    0.7090927662
     H     4.2306642623    2.5093404019   -0.6601049963
     H     1.8021383539    2.0380724661   -0.8724031757
     H     2.1269439213   -1.3710458533    1.5293720293
     H     4.5659491067   -1.0211576460    1.8191606519
     C    -0.7710512651   -3.3866989300   -3.1617148455
     C     0.4528834480   -3.2929758989   -2.4913941415
     C     0.6433937084   -2.2701740556   -1.5738617896
     N    -0.3287930885   -1.3509347962   -1.3147637899
     C    -1.5217741184   -1.4382779048   -1.9714310102
     C    -1.7710353185   -2.4429036963   -2.8926665550
     H    -0.9435826475   -4.1799117031   -3.8839676299
     H     1.2546857920   -4.0008391006   -2.6757362828
     H     1.5800682091   -2.1648971663   -1.0375849422
     H    -2.2661210829   -0.6812205992   -1.7466316206
     H    -2.7326513294   -2.4804536761   -3.3947741189
     C    -2.1323416139    3.8958784145   -1.5841648504
     C    -1.4169531221    3.0696084827   -2.4614140901
     C    -0.8255095292    1.9161089709   -1.9716240038
     N    -0.9179262862    1.5699992584   -0.6549121662
     C    -1.6104073416    2.3748757385    0.2002286946
     C    -2.2289809472    3.5378186485   -0.2360719289
     H    -2.6070625699    4.8028249574   -1.9483935765
     H    -1.3210840565    3.3134546652   -3.5147975014
     H    -0.2693216526    1.2462688713   -2.6205832462
     H    -1.6668447275    2.0649340015    1.2382909661
     H    -2.7770391911    4.1488736247    0.4739870381
     C    -1.6973357837   -1.2735881695    4.2514851365
     C    -2.1866043851   -1.8631125370    3.0809866065
     C    -1.6584143040   -1.4747066651    1.8589223079
     N    -0.6711733131   -0.5385298239    1.7718394197
     C    -0.1899825467    0.0345301043    2.9127480618
     C    -0.6848086575   -0.3093753049    4.1604885651
     H    -2.0964680776   -1.5610865209    5.2203246278
     H    -2.9668310107   -2.6169850198    3.1103034395
     H    -2.0077221951   -1.9106668302    0.9289425119
     H     0.5979530645    0.7721934975    2.7997069228
     H    -0.2795187168    0.1690153065    5.0465398307
