17
-3.9506734596755399e+02 frame 50   xyz file generated by TeraChem
    Ni     0.2657062975   -0.1189775032   -0.2065369577
     N     2.0053949936    0.9072484903    0.3234765874
     H     1.9079288853    1.5255687519    1.1343707638
     H     2.7814178250    0.2769652091    0.5549578559
     H     2.3638246712    1.5027517324   -0.4308561641
     N    -0.5504183114   -1.5797644531   -1.4549520461
     H    -0.7317344371   -1.2421702859   -2.4063093454
     H     0.0692741111   -2.3890890443   -1.5753064829
     H    -1.4406378912   -1.9690085601   -1.1302091933
     N    -1.0360002516    1.4624922348   -0.5701219566
     H    -0.8226715811    1.9660366445   -1.4380216518
     H    -2.0138987669    1.1696919065   -0.6579020117
     H    -1.0247871741    2.1733993267    0.1673539063
     N    -0.3547703048   -0.8164253868    1.6502702569
     H    -0.2177544070   -0.1415082883    2.4089280959
     H    -1.3481064799   -1.0663404521    1.6838876472
     H     0.1469674862   -1.6610683407    1.9469686241
