11
-8.1273291327292191e+02 frame 64   xyz file generated by TeraChem
    Fe     0.1286422742    0.0747226728   -0.1133187992
     O     1.8154816726   -0.9658618008   -0.0137933490
     H     2.6736079106   -0.5989557181   -0.2930704909
     H     1.9224011337   -1.2972262410    0.9025832810
     O     0.0125201592   -0.0880982319   -2.0910648725
     H    -0.8197591146    0.1553496810   -2.5361255752
     H     0.3705354276   -0.8665756794   -2.5545810876
     O    -1.3558878657    1.4275410748   -0.1653093807
     H    -1.7685839358    1.4043406232    0.7240687280
     H    -1.1330358552    2.3608907658   -0.3393704698
    Cl    -0.2051340958   -0.2459830685    2.0418633088
