13
-2.0877671642075393e+03 frame 64   xyz file generated by TeraChem
    Fe     0.2132346419   -0.2693266529    0.1600740892
     S     2.4333476266    0.0247411837    0.4222343930
     C     3.2075428013   -0.4547885992   -1.0080528002
     N     3.7998314529   -0.7750896052   -1.9649485366
     S     0.2976294458   -1.8731298007   -1.4333427408
     C    -1.3600695523   -2.2057108464   -1.5814160722
     N    -2.4885145709   -2.4871245057   -1.7084833762
     N    -0.9703409106    0.9228703721   -0.5907409976
     C    -1.4739937094    1.8714487461   -1.1088101600
     S    -2.1945973211    3.1333247328   -1.7980022836
     N    -0.0648215171   -0.0008727990    1.9931165906
     C    -0.1872512712    0.3973355071    3.1096406218
     S    -0.3663894493    0.8967942310    4.6319390783
