50
-1.2257129985929398e+03 frame 101   xyz file generated by TeraChem
    Fe     0.0706185192    0.4185190480   -0.5681965859
     C     2.1761097975    0.4570610698   -0.5791477801
     N     3.3310031665    0.4027497601   -0.4752778195
     C     5.5089052565    1.2742586685   -1.2322362509
     C     5.9072362196    0.8641694141   -2.5058569495
     C     6.6189083946    1.7434368355   -3.3386651602
     C     6.9337093553    3.0323537889   -2.8969826849
     C     6.5401672310    3.4436936384   -1.6252850300
     C     5.8279208224    2.5667620049   -0.7916403909
     H     5.6853499303   -0.1417110566   -2.8530961036
     H     6.9345236180    1.4116418655   -4.3229052051
     H     6.7917241942    4.4372827063   -1.2680395196
     H     5.5392968404    2.8893005505    0.2056243660
     H     7.4926411647    3.7049310765   -3.5398034874
     C     4.7678062724    0.3189890115   -0.3178288863
     H     4.9723993527    0.5234246063    0.7377995311
     H     5.0357319854   -0.7232732127   -0.5175136829
     C    -0.6154748131   -1.0240977058   -1.9248213026
     N    -1.0063897006   -1.8714634708   -2.6170874679
     C    -2.6114424731   -3.7264468434   -2.7483146084
     C    -2.3062650606   -4.7225790356   -1.8120805101
     C    -3.3359248882   -5.4481662232   -1.1849634524
     C    -4.6690599959   -5.1839703455   -1.4963118706
     C    -4.9767788620   -4.1959840720   -2.4331967885
     C    -3.9474636285   -3.4649751378   -3.0582203478
     H    -1.2705914171   -4.9504470123   -1.5727795358
     H    -3.0831030160   -6.2211026107   -0.4661114866
     H    -6.0107668827   -3.9888894595   -2.6907076524
     H    -4.2025935473   -2.7059462517   -3.7931648916
     H    -5.4633893159   -5.7492964210   -1.0197810909
     C    -1.5000631072   -2.9563511196   -3.4361586659
     H    -1.8383950265   -2.5128840461   -4.3772217906
     H    -0.6384522461   -3.5957248609   -3.6535689727
     C    -0.8539619633    2.2679038845   -0.9473397586
     N    -1.4183993040    3.2758770481   -1.0717474314
     C    -2.8317856240    5.0044258509    0.0101047733
     C    -2.8864712950    4.2842672309    1.2052045944
     C    -3.5755836902    4.8131593747    2.2948830998
     C    -4.2145203712    6.0666806214    2.1961313245
     C    -4.1599762850    6.7885206184    0.9985643837
     C    -3.4743940027    6.2641635304   -0.0886925009
     H    -2.3988094918    3.3191084725    1.2966465580
     H    -3.6200237903    4.2584517404    3.2267411303
     H    -4.6494131161    7.7534881009    0.9176901215
     H    -3.4309709754    6.8212047782   -1.0213207479
     H    -4.7462538986    6.4692536052    3.0525135646
     C    -2.1183013375    4.5122057759   -1.2361294664
     H    -1.3818113258    5.2511089827   -1.5765372610
     H    -2.8302243056    4.3670462999   -2.0592399156
     I    -0.8545431640   -0.3539094557    1.7542447283
