101
-2.0304316050290233e+03 frame 122   xyz file generated by TeraChem
    Mn     0.0472330607   -0.0057111270    0.0250755316
     C     1.8062800543   -0.8662697341    0.3565061593
     N     2.8503319846   -1.3608347271    0.5332551155
     C     4.0867672041   -1.9415185257    0.7199986865
     C     4.7573894572   -1.7786920653    1.9446117675
     C     6.0065197328   -2.3554889052    2.1044505080
     C     6.6214116810   -3.1070369224    1.0793843972
     C     8.0148659532   -3.7084436584    1.3040709016
     C     9.0156448517   -2.5523778162    1.5590310379
     C     7.9761038929   -4.6438155904    2.5385468404
     C     8.5028845812   -4.5251998957    0.0924768337
     C     5.9144967158   -3.2576483556   -0.1283318430
     C     4.6645247775   -2.6833783357   -0.3205818741
     H     4.3020484547   -1.2005265018    2.7420095481
     H     6.5198500721   -2.2174856316    3.0497130286
     H     9.0563510595   -1.8683823691    0.7044380755
     H    10.0194777750   -2.9614079533    1.7138734680
     H     8.7531626988   -1.9709702383    2.4488196396
     H     7.2756479743   -5.4722451992    2.3865716429
     H     7.6863852106   -4.1160555681    3.4529710442
     H     8.9707715075   -5.0696079919    2.7067003128
     H     7.8414582820   -5.3719396000   -0.1230388208
     H     9.4948954296   -4.9340635442    0.3067484447
     H     8.5939198044   -3.9118624410   -0.8111680460
     H     6.3451824176   -3.8314836520   -0.9393146146
     H     4.1333351789   -2.8083827950   -1.2586029042
     C     0.2755193100   -0.3281670085   -1.9212040861
     N     0.4046543471   -0.5237491144   -3.0661861740
     C     0.5429620573   -0.7570630642   -4.4179101575
     C    -0.5696962580   -0.6080892680   -5.2640787086
     C    -0.4190958348   -0.8554567439   -6.6180971025
     C     0.8187262323   -1.2454100887   -7.1745266368
     C     0.9234350209   -1.5187090463   -8.6801987093
     C    -0.0183762985   -2.6972659739   -9.0364431082
     C     0.4859552608   -0.2532135883   -9.4599786719
     C     2.3546275965   -1.8875507448   -9.1132290920
     C     1.9118478765   -1.3766760852   -6.2978787504
     C     1.7885973106   -1.1426593298   -4.9338079315
     H    -1.5292811010   -0.3124219665   -4.8527522922
     H    -1.2845869235   -0.7435081210   -7.2618014119
     H     0.2710465972   -3.6114841834   -8.5065310737
     H     0.0351342596   -2.8990827093  -10.1114669897
     H    -1.0634734109   -2.4799496307   -8.7923795480
     H     1.1313172945    0.6007901187   -9.2269304362
     H    -0.5485929803    0.0314355949   -9.2429840357
     H     0.5540762116   -0.4441121212  -10.5360233930
     H     3.0684384922   -1.0820367669   -8.9063465061
     H     2.3704675850   -2.0662572362  -10.1925163768
     H     2.7103037246   -2.8040998983   -8.6288690852
     H     2.8817034576   -1.6685138018   -6.6813602969
     H     2.6421364123   -1.2484150958   -4.2720572984
     C    -1.7092300252    0.8556504235   -0.3108622280
     N    -2.7502276915    1.3525283113   -0.5001367873
     C    -3.9815158590    1.9355163119   -0.7085774572
     C    -4.7562289351    2.3321782106    0.3955820732
     C    -5.9943660295    2.9103318776    0.1722143554
     C    -6.5003557679    3.1154132573   -1.1300107452
     C    -7.8779657815    3.7635171408   -1.3181068372
     C    -8.9444607561    2.8943692625   -0.6046134539
     C    -7.8589212166    5.1790925131   -0.6876609316
     C    -8.2679788369    3.8942138114   -2.8025777259
     C    -5.6964841669    2.7074108054   -2.2106982862
     C    -4.4511457446    2.1225911324   -2.0167188518
     H    -4.3839196097    2.1798678658    1.4033228359
     H    -6.5853647286    3.2099263318    1.0306509400
     H    -8.9805231425    1.8837311650   -1.0257208757
     H    -9.9325029501    3.3488531150   -0.7312375539
     H    -8.7563888362    2.8084303117    0.4705041408
     H    -7.1165984171    5.8212904389   -1.1740766109
     H    -7.6357425679    5.1519073263    0.3839619048
     H    -8.8415944195    5.6465469443   -0.8091034849
     H    -7.5687662765    4.5287364668   -3.3590835960
     H    -9.2558219609    4.3586060012   -2.8770859154
     H    -8.3284298064    2.9193645898   -3.2996055984
     H    -6.0446223881    2.8460511287   -3.2266520236
     H    -3.8437362094    1.8150001618   -2.8616326370
     C    -0.1920967399    0.3157389611    1.9707166920
     N    -0.3447670947    0.5113992181    3.1127269294
     C    -0.5392105944    0.7528797758    4.4562854812
     C     0.2435761421    0.0768735931    5.4080928680
     C     0.0278081495    0.3298969116    6.7527345029
     C    -0.9459649884    1.2522276637    7.1941757133
     C    -1.1454680777    1.4907109556    8.6961307602
     C    -1.5867295307    0.1588218547    9.3559233886
     C     0.1926701726    1.9612545111    9.3195710573
     C    -2.2181456882    2.5575730267    8.9845777001
     C    -1.7064578854    1.9136333433    6.2119792168
     C    -1.5191521838    1.6728014976    4.8569554267
     H     0.9953350501   -0.6365942956    5.0866926485
     H     0.6300569787   -0.2016253708    7.4810904138
     H    -2.5302163278   -0.1998633939    8.9303389345
     H    -1.7366938100    0.3115686932   10.4298568205
     H    -0.8374131879   -0.6306866813    9.2361976975
     H     0.5337295911    2.8986929583    8.8667372950
     H     0.9891549580    1.2186173142    9.2057379613
     H     0.0572650438    2.1345025010   10.3922387698
     H    -1.9549520879    3.5328058889    8.5591467834
     H    -2.3132223468    2.6905174223   10.0663596072
     H    -3.2045289499    2.2656838651    8.6064979834
     H    -2.4613800461    2.6321472910    6.5060524894
     H    -2.1128834850    2.1924520129    4.1119688523
