29
-8.3530856054353251e+02 frame 63   xyz file generated by TeraChem
    Co     0.2737301122   -0.2925857777   -0.4346467363
     O    -1.1541998555   -0.8594284303   -1.4124702043
     C    -1.9485385011   -1.8476594254   -1.1550793915
     C    -3.0249148072   -2.0712987371   -2.1775194491
     C    -1.8336948776   -2.6530084535   -0.0164579998
     C    -0.8312981181   -2.4718909344    0.9440525849
     O     0.0761443490   -1.5521177337    0.8735497513
     C    -0.7295309011   -3.3554680619    2.1539998612
     H    -2.5672225754   -2.2322141091   -3.1599306116
     H    -3.6448083004   -1.1707957650   -2.2535999665
     H    -3.6540802875   -2.9256553984   -1.9236924731
     H    -1.5372915074   -4.0878552650    2.1913487725
     H    -0.7497755887   -2.7385111578    3.0590116958
     H     0.2343957257   -3.8771481953    2.1407633371
     H    -2.5512537049   -3.4499541834    0.1291010963
     O     2.0626642474   -0.0854102011   -0.1693773094
     C     2.7409034653    1.0160775165   -0.2157187017
     C     4.2156074788    0.8541626774    0.0157196118
     C     2.1660239922    2.2688055241   -0.4575772871
     C     0.7969317938    2.4473763200   -0.6916196304
     O    -0.0637187420    1.4815078554   -0.7097212754
     C     0.2123868773    3.8065861052   -0.9490895188
     H     4.3803534061    0.3802486008    0.9897120080
     H     4.7402783598    1.8100493577   -0.0190634109
     H     4.6306724442    0.1822887896   -0.7442116710
     H     0.9672918518    4.5923867989   -0.8942209220
     H    -0.5798338093    4.0063219998   -0.2191026663
     H    -0.2533501083    3.8182094847   -1.9412407045
     H     2.8082328951    3.1398012314   -0.4625717786
