31
-9.4568209526249484e+02 frame 60   xyz file generated by TeraChem
    Mn     0.3035335566   -0.3372931406   -0.3766309535
     O    -0.5733914038   -1.3507907350   -1.6488295476
     C    -1.4664807366   -2.1870315446   -1.0749131508
     C    -1.5417178213   -2.1070058794    0.3367285922
     C    -2.4267089552   -2.9183328618    1.0416331027
     C    -3.2539284294   -3.8271521774    0.3529504217
     C    -3.1710976232   -3.8952091602   -1.0411887458
     C    -2.2820744772   -3.0811586777   -1.7625104573
     O    -0.7069993420   -1.2086441119    0.9027309828
     H    -2.4655726191   -2.8378408777    2.1265306734
     H    -3.8087557036   -4.5943171905   -1.5803703839
     H    -2.2203835340   -3.1351947772   -2.8468959509
     C    -4.2059736583   -4.7162832526    1.1229977837
     H    -4.8884931906   -4.1335530505    1.7573214358
     H    -3.6725710487   -5.4096725251    1.7892422433
     H    -4.8216662375   -5.3219955279    0.4474587465
     O     2.1303448422   -0.2542093878   -0.0865506064
     C     2.6082793592    1.0013715588   -0.2127481283
     C     1.6339134559    1.9736620019   -0.5348736368
     C     1.9941118906    3.3092829221   -0.6923672170
     C     3.3385958296    3.6991216446   -0.5328312896
     C     4.2928821050    2.7272919970   -0.2155781906
     C     3.9389991663    1.3773094454   -0.0535605448
     O     0.3816578712    1.4909294387   -0.6654697555
     H     1.2248148298    4.0388341014   -0.9392228380
     H     5.3336766831    3.0227619046   -0.0907191369
     H     4.6834560690    0.6239089758    0.1928931079
     C     3.7309287126    5.1504743872   -0.7044839003
     H     3.2110381997    5.8043398960    0.0102755981
     H     3.4865755652    5.5263329317   -1.7082927738
     H     4.8077862871    5.2931429037   -0.5548749105
