14
-1.3977956213582909e+03 frame 56   xyz file generated by TeraChem
    Cr     0.2672923377    0.1044981088    0.3125146884
     C     3.3937001130   -0.2634969806   -0.0991400673
     O     2.1516099348   -0.1942584406    0.0035725559
     H     3.9418530700   -1.0244861143    0.4763170078
     H     3.9295033727    0.4316901243   -0.7622949205
     S    -0.5238830606   -1.6060391442   -1.4189773629
     H     0.0637413634   -1.1643340762   -2.5636979314
     H    -1.7757590557   -1.2060248109   -1.7658886343
     S    -0.9210067269    2.3315244479   -0.0644017054
     H    -0.5353040304    2.7238880261   -1.3078293448
     H    -2.2145317573    2.0810857632   -0.3941624863
     S    -1.4816325915   -0.6277999434    2.0133656823
     H    -1.1407224004    0.1572846408    3.0711826619
     H    -0.8738923598   -1.7436162699    2.4996102198
