49
-2.7085107460646018e+03 frame 12   xyz file generated by TeraChem
    Fe     0.0009300236    0.0185744158    0.0064188281
     C     4.8762677882   -0.2169127001    0.1436722043
     C     4.2319952175    0.9109284598   -0.4132002962
     C     2.8516934991    0.9596997539   -0.4416906625
     N     2.0595319622   -0.0312736475    0.0478700582
     C     2.6809631989   -1.1171920964    0.5888468541
     C     4.0516432337   -1.2494492698    0.6530993342
     S     6.6008415000   -0.4221747993    0.2488826732
     H     4.7974349409    1.7422733808   -0.8212970488
     H     2.3473231498    1.8212256504   -0.8664158994
     H     2.0395765240   -1.8954484781    0.9924035165
     H     4.4822975195   -2.1397650849    1.1005614810
     H     6.9505197230    0.7513366999   -0.3207055574
     C    -1.8219366289   -3.0440756538   -3.3327054741
     C    -0.4655955683   -3.1289512261   -2.9452508307
     C     0.0251389064   -2.2537377818   -1.9958134782
     N    -0.7340647179   -1.2947201440   -1.4012744786
     C    -2.0409753836   -1.2090639820   -1.7788203129
     C    -2.6122166431   -2.0442340782   -2.7150213576
     S    -2.5827579549   -4.0745781952   -4.5103910564
     H     0.2014150068   -3.8683388968   -3.3761899894
     H     1.0656027375   -2.3099623627   -1.6921802342
     H    -2.6347679611   -0.4315272632   -1.3067163394
     H    -3.6597632992   -1.9214881006   -2.9717794160
     H    -1.5016374012   -4.8274939752   -4.8070991474
     C    -1.5757392230    4.4709960053   -1.2170248178
     C    -0.9905148654    3.6062814840   -2.1711722534
     C    -0.5598758170    2.3552615400   -1.7770093530
     N    -0.6629208652    1.8982687484   -0.4989843152
     C    -1.2275808396    2.7294469120    0.4194306722
     C    -1.6877565973    3.9925757726    0.1101992410
     S    -2.1657073164    6.0714972702   -1.5595312358
     H    -0.8779575143    3.9006348071   -3.2095127432
     H    -0.1202330520    1.6768109185   -2.5025411965
     H    -1.3115938623    2.3531346782    1.4341182963
     H    -2.1291024842    4.6055405453    0.8898346258
     H    -1.8592002875    6.0932549072   -2.8746760307
     C    -1.5294428293   -1.1764613645    4.4879072649
     C    -2.1305854936   -1.7506305260    3.3450175762
     C    -1.6817969465   -1.3911427365    2.0890454935
     N    -0.6733499080   -0.5022511572    1.8824896469
     C    -0.0905360531    0.0485004543    2.9848952698
     C    -0.4791607916   -0.2510319904    4.2733329729
     S    -1.9865383424   -1.5271506444    6.1296686370
     H    -2.9399379403   -2.4682724637    3.4304779329
     H    -2.1352066461   -1.8276097254    1.2050397115
     H     0.7208390521    0.7490945065    2.8099033703
     H     0.0288339320    0.2224081529    5.1076939199
     H    -2.9705332058   -2.4093641179    5.8515776463
