11
-2.0374682714326689e+03 frame 40   xyz file generated by TeraChem
    Mn    -0.1363743333    0.1239205109    0.0053214367
     N     1.8634895477   -0.1318485076    0.2517945130
     C     3.0213993025   -0.2754820721    0.4415371005
     S     4.6326255482   -0.4768699606    0.7074985553
     N    -0.6862997721   -1.2189093367   -1.4179870692
     C    -1.0532266130   -2.0110954014   -2.2151598746
     S    -1.5648901909   -3.1163026232   -3.3213984894
     N    -0.4642664505    1.9391201718   -0.7984362752
     C    -0.6829342548    3.0186955455   -1.2263661987
     S    -0.9850758462    4.5218059282   -1.8243660927
    Cl    -1.2431004064   -0.1283921080    2.0862605916
