11
-1.6080818856405849e+03 frame 6   xyz file generated by TeraChem
    Fe     0.3365997326    0.5514359640   -0.2546383724
     S     2.5462878859    0.8834155486   -0.6231217959
     C     3.3485924752   -0.5259787995   -0.1271996600
     N     3.9867173622   -1.4611247426    0.1789722726
     S    -1.1595742484   -0.1934025924   -1.7437289041
     C    -1.0120319758   -1.8843576096   -1.7233885734
     N    -0.9632753193   -3.0539164613   -1.7971586315
     S    -0.0278068267    2.7935481859   -0.5980361263
     C    -1.5468445269    3.0071856367   -1.3167004043
     N    -2.5862071548    3.2182607667   -1.8188750214
     I     0.0247740855   -0.8918565886    1.8531383589
