31
-1.7492452579894425e+03 frame 232   xyz file generated by TeraChem
    Cr     0.1753726848   -0.1624420452   -0.3223719808
     S     2.3955057577    0.2235455612    0.0365383201
     C     2.2304750741    1.5076977061    1.1295644834
     N     2.0515118688    2.3914101925    1.8745527324
     S     0.7157506229   -1.8068281882   -2.0237934444
     C    -0.9036138429   -1.5061929342   -1.7592161107
     N    -1.9000999259   -1.0664830011   -1.2912734644
     C    -1.8663015839    4.1642781540   -0.9161892910
     C    -0.5266258927    3.9531470357   -1.2751038704
     C     0.0373650791    2.7080171879   -1.0485263649
     N    -0.6603021933    1.6829480029   -0.5007178314
     C    -1.9583584447    1.8835359284   -0.1655481458
     C    -2.5898570826    3.1024429732   -0.3493705901
     C    -2.4870007542    5.4373866653   -1.1267424485
     H     0.0676248237    4.7448759977   -1.7163083586
     H     1.0717342489    2.5096686781   -1.3013373581
     H    -2.4959825723    1.0362172027    0.2418066409
     H    -3.6290213467    3.2238991497   -0.0661583828
     N    -2.9926574776    6.4699737750   -1.2964680293
     C    -1.3113896306   -1.6492320195    3.9889661792
     C    -0.7554683475   -0.3690112767    3.8417494770
     C    -0.3649467114    0.0530015218    2.5807149928
     N    -0.5110885446   -0.7292620028    1.4846528182
     C    -1.0513803649   -1.9648316796    1.6214757464
     C    -1.4572120695   -2.4581326193    2.8506612623
     C    -1.7241868841   -2.1217015138    5.2761185276
     H    -0.6207313478    0.2855109632    4.6952712831
     H     0.0937414847    1.0253124274    2.4384433572
     H    -1.1702294824   -2.5557087970    0.7216410846
     H    -1.8821836303   -3.4527849476    2.9211219472
     N    -2.0618728667   -2.5043129978    6.3202970511
