11
-1.6965710060276701e+03 frame 22   xyz file generated by TeraChem
    Fe     0.2642696788    0.4600159135   -0.1753532394
     N     1.9739027696   -0.3819178821    0.3005978194
     C     3.0732230042   -0.6885401713    0.5967238866
     S     4.6185861333   -1.1094494028    1.0122814388
     N    -0.2205812232   -0.8004040265   -1.5103669966
     C    -0.4963545233   -1.5752970016   -2.3536896826
     S    -0.8854724582   -2.6619278550   -3.5359464089
     N    -1.0042663830    1.8507546466   -0.7299006744
     C    -1.6135676142    2.8165972198   -1.0229730096
     S    -2.4628193357    4.1765648880   -1.4327473323
     F    -0.4952750515    0.1999273116    1.4041092429
