13
-2.0877320099753183e+03 frame 131   xyz file generated by TeraChem
    Fe     0.0904342565    0.0961380714    0.0044338449
     S     1.8713209533   -1.4471105278    0.1582682585
     C     2.8719755333   -0.7082788589    1.3090236182
     N     3.6117851326   -0.2407170345    2.0920528045
     S    -0.9309747676   -0.7985781788   -1.8504743076
     C    -0.3944464744   -2.3783660835   -2.1486631585
     N    -0.0817026575   -3.4739062571   -2.4301320495
     S    -0.9575162315    2.2031824170   -0.1860054086
     C    -0.0124535834    2.9539639161   -1.3751953643
     N     0.6088663097    3.5328152862   -2.1862837661
     S    -0.9764075382   -0.7133449477    1.8727698313
     C    -2.3638096853    0.1981923008    2.2159825239
     N    -3.3376767254    0.7759424405    2.5244520265
