53
-1.4009633900327240e+03 frame 180   xyz file generated by TeraChem
    Mn    -0.0261000068    0.0262827281    0.0266755359
     C     2.1085400111    0.3754788889   -0.2615177062
     N     3.2556592851    0.5402323909   -0.4023596213
     C     4.6150564687    0.7303096659   -0.5681520956
     C     5.1813059447    1.9677262701   -0.1927999579
     C     6.5454036512    2.1449459014   -0.3592550201
     C     7.3324087798    1.1052885134   -0.8921876968
     C     6.7509808901   -0.1228885424   -1.2625738281
     C     5.3890139447   -0.3218545922   -1.1043290829
     H     4.5548917833    2.7532309060    0.2156970175
     H     7.0073832891    3.0855642381   -0.0783424125
     H     7.3698254479   -0.9145214722   -1.6717555900
     H     4.9187675610   -1.2590084727   -1.3816305831
     H     8.4005315068    1.2529491455   -1.0193625996
     C    -0.6948884537   -1.4061786624   -1.4710475825
     N    -1.0610606899   -2.1580572250   -2.2854698839
     C    -1.4905005611   -3.0466993827   -3.2539730434
     C    -1.6740463764   -4.4014620533   -2.9026407992
     C    -2.1037368996   -5.2832743649   -3.8813076326
     C    -2.3463905922   -4.8219783760   -5.1894445560
     C    -2.1578249684   -3.4668415540   -5.5230583830
     C    -1.7286430805   -2.5675716975   -4.5601026452
     H    -1.4798763156   -4.7328432752   -1.8884337733
     H    -2.2531590309   -6.3301710540   -3.6388107361
     H    -2.3486258399   -3.1260530768   -6.5352542039
     H    -1.5759869103   -1.5194574841   -4.7936216056
     H    -2.6828355833   -5.5195875534   -5.9503612361
     C    -1.1592160362    1.8688011169   -0.2214875990
     N    -1.7871721496    2.8433681199   -0.3572670263
     C    -2.5354698198    3.9955114389   -0.5141717350
     C    -3.8340321169    4.0432783482    0.0381142922
     C    -4.5759288079    5.2021695907   -0.1241716537
     C    -4.0322127914    6.2955663484   -0.8254013175
     C    -2.7350869712    6.2307373906   -1.3705239616
     C    -1.9753426987    5.0816524082   -1.2201853741
     H    -4.2311915726    3.1879971455    0.5739695864
     H    -5.5766133292    5.2665259484    0.2900126927
     H    -2.3298867608    7.0810180634   -1.9089796851
     H    -0.9746095873    5.0078196865   -1.6317002730
     H    -4.6201033851    7.2001144171   -0.9478590269
     C    -0.3204741211   -0.7657825938    2.0357161897
     N    -0.4642909143   -1.1788713107    3.1180222176
     C    -0.6312196076   -1.6646771099    4.4016199474
     C    -1.1798798294   -2.9533564898    4.5767108895
     C    -1.3397330484   -3.4311392962    5.8674952146
     C    -0.9592322269   -2.6366137197    6.9663992728
     C    -0.4139911789   -1.3525241385    6.7739030147
     C    -0.2450478420   -0.8549346680    5.4917571924
     H    -1.4652624242   -3.5466654111    3.7149239334
     H    -1.7589642036   -4.4183079525    6.0312233113
     H    -0.1256317301   -0.7517711911    7.6300780104
     H     0.1734470254    0.1305567454    5.3185489662
     H    -1.0878569959   -3.0188794280    7.9744515386
