25
-6.5405846607214289e+02 frame 56   xyz file generated by TeraChem
    Fe     0.0066683406    0.0342036172   -0.0539378616
     C     3.1346445821    0.5478126767    0.4216479894
     N     2.0010055006    0.3750278838    0.2475097892
     C     4.5539083368    0.7621879005    0.6399776728
     H     4.7614900268    0.8048871035    1.7148263250
     H     4.8601248196    1.7060455451    0.1750944140
     H     5.1243103604   -0.0599666134    0.1935567345
     C    -0.4477464377   -2.0873019920   -2.4135744358
     N    -0.2898136037   -1.3281006652   -1.5510912742
     C    -0.6442997577   -3.0351559382   -3.4953966918
     H     0.3248297087   -3.3123339643   -3.9248265737
     H    -1.2692706209   -2.5833453071   -4.2737021523
     H    -1.1393066135   -3.9346441392   -3.1125250716
     C    -1.3769351576    2.8715752107   -0.5970635515
     N    -0.8670900258    1.8489749521   -0.3978184932
     C    -2.0163904360    4.1507505788   -0.8467708407
     H    -1.6293334830    4.5826453513   -1.7763336164
     H    -1.8114213459    4.8352897260   -0.0161798384
     H    -3.0992311826    4.0095075204   -0.9383628254
     C    -1.3058682555   -1.3060175116    2.5503291533
     N    -0.8327909240   -0.8302436867    1.6043035702
     C    -1.8975071981   -1.9000236486    3.7359349061
     H    -2.9868905105   -1.9393579117    3.6266833478
     H    -1.6449063719   -1.2966134313    4.6150580184
     H    -1.5102755675   -2.9156502726    3.8736269804
