14
-5.6620911978366769e+02 frame 59   xyz file generated by TeraChem
    Fe     0.0850153350    0.0962828786   -0.3463077873
     C     3.0184322612    0.2283091988    0.5415179264
     O     1.9851125361    0.4590010548   -0.1007666227
     H     3.0610965293   -0.5833942347    1.2802303467
     H     3.9022087992    0.8526316402    0.3567335789
     C    -0.6636086140   -2.2034377783   -2.2604558972
     O    -0.0297950492   -1.3088739948   -1.6850151734
     H    -1.7296466449   -2.3665663779   -2.0535070255
     H    -0.1400811182   -2.8357480335   -2.9891968903
     C    -1.2986057135    2.7559811776   -0.9643715059
     O    -0.7124996142    1.6858863870   -1.1772467518
     H    -1.4289084229    3.1429242306    0.0553012166
     H    -1.6886036133    3.3199803764   -1.8215937645
     F    -0.6631980755   -0.1770577882    1.1612201297
