25
-6.3444254287222702e+02 frame 23   xyz file generated by TeraChem
    Mn    -0.0036664057    0.0117775546   -0.0060583832
     C     2.1758238697    0.0681730768    0.0262426405
     N     3.3344483228    0.0954893373    0.0468386399
     C     4.7651121193    0.1278077827    0.0744446910
     H     5.1471382021   -0.6940461589   -0.5362857928
     H     5.0988383715    0.0152102320    1.1090010112
     H     5.1034171170    1.0856414868   -0.3286590851
     C    -0.6588131505   -1.4421431530   -1.4895148486
     N    -1.0068353632   -2.2164100034   -2.2788132917
     C    -1.4369301325   -3.1722677514   -3.2534889384
     H    -2.0387470729   -2.6590644552   -4.0077328951
     H    -2.0334195582   -3.9398829958   -2.7540913808
     H    -0.5557198870   -3.6224744205   -3.7173922055
     C    -0.7875271967    1.9822257898   -0.5097517341
     N    -1.2035089032    3.0302611300   -0.7783069317
     C    -1.7150657391    4.3247821763   -1.1114326228
     H    -2.3344906391    4.6815588983   -0.2847472865
     H    -2.3132263730    4.2427174609   -2.0223973723
     H    -0.8743034138    5.0041079926   -1.2727640147
     C    -0.7357451655   -0.5834367964    1.9608087994
     N    -1.1272499211   -0.8988042376    3.0052243905
     C    -1.6109455864   -1.2886674503    4.2947848252
     H    -1.6091861899   -2.3798205455    4.3557588092
     H    -2.6269710871   -0.9057617322    4.4190041112
     H    -0.9533360978   -0.8672019113    5.0591850239
