13
-8.9948140850578307e+02 frame 55   xyz file generated by TeraChem
    Co     0.1409329405   -0.1555713813   -0.1600947761
     C    -1.2675465975   -2.4157836709   -0.6451205966
     O    -0.1398916741   -1.8445452234   -0.9796401456
     C    -2.1285192304   -1.5586930487    0.3479671854
     O    -3.2239582263   -1.9585946392    0.7461983781
     O    -1.5638027496   -0.4356281673    0.6731715230
     O    -1.6493120464   -3.5135954195   -1.0449031245
     C     2.4095878265    1.2483365680   -0.6694631054
     O     1.8455356496    0.1247265940   -0.9939744509
     C     1.5491561776    2.1045320716    0.3250386316
     O     1.9312154513    3.2018712908    0.7257790394
     O     0.4216534408    1.5329970358    0.6595728857
     O     3.5042936403    1.6491876864   -1.0686648610
