19
-1.3708698748706547e+03 frame 60   xyz file generated by TeraChem
    Fe    -0.5290157053    0.5122239950    0.5495325549
     N     0.9735990129    1.2967879873    1.3335058729
     C     1.9293450387    1.7958708025    1.8335200726
     S     3.2228994620    2.4718150126    2.5104600764
     N    -2.0313736610   -0.2726316654   -0.2347241190
     C    -2.9850357330   -0.7748402430   -0.7355318150
     S    -4.2759497992   -1.4547141988   -1.4135613880
     C    -0.5314811359    2.7136253335   -1.6512240257
     N    -0.5300042875    1.8964996774   -0.8346277173
     C    -0.5334772572    3.7410163714   -2.6800914087
     H    -0.0035361165    3.3728783594   -3.5648947522
     H    -0.0318496882    4.6402756271   -2.3088804246
     H    -1.5639198583    3.9869190117   -2.9559587899
     C    -0.5318021054   -1.6869795191    2.7524966587
     N    -0.5296138738   -0.8715844769    1.9341872808
     C    -0.5344320402   -2.7141059666    3.7817391631
     H    -0.0390420449   -3.6136929719    3.4016174413
     H    -1.5652120420   -2.9610328531    4.0554958062
     H     0.0007142768   -2.3553809885    4.6666353621
