13
-1.2584121860741857e+03 frame 76   xyz file generated by TeraChem
    Fe     0.0565431545   -0.2596711382   -0.0092605548
     S     2.0735261266   -0.3135954067    1.1890723960
     C     2.2829062238    1.3465230067    1.3760316646
     N     2.2952029106    2.5171969221    1.4564771894
     S    -1.7016304234   -0.1503223869   -1.5602556948
     C    -1.5676055445   -1.6997177114   -2.2040311846
     N    -1.3832392485   -2.8054853303   -2.5508487717
     O    -0.3187953365    1.6556090436    0.3710235245
     H     0.4534329279    2.1590415804    0.7350434566
     H    -0.6795058342    2.1725411822   -0.3691186117
     O     0.3121858810   -2.2189983690   -0.2142731886
     H    -0.1769583710   -2.6526679614   -0.9587046097
     H     1.2332593134   -2.5281969307   -0.2420160581
