17
-4.8670296500084942e+02 frame 83   xyz file generated by TeraChem
    Co     0.0869276520   -0.0140515274   -0.0453403051
     N     1.4327227452    0.3847596865   -1.4506110835
     H     1.2366445652    1.3031472884   -1.8635207928
     H     2.3906558195    0.4375104995   -1.0868691307
     H     1.4617072367   -0.2750229392   -2.2342069091
     N     0.2655094776   -1.9758345675   -0.3096126482
     H    -0.2410934158   -2.3345740791   -1.1269806012
     H     1.2368048967   -2.2845883688   -0.4196849575
     H    -0.0967949671   -2.4936645437    0.4975913892
     C    -0.1153284915    2.7167836071    1.0485933918
     O    -0.1809757422    1.9063328376    0.1204905541
     H     0.1615321481    2.4166392482    2.0688170221
     H    -0.3396300730    3.7707141826    0.8435246368
     C    -2.3904831484   -0.3738028000    1.5389022047
     O    -1.1639213227   -0.3410995764    1.4102262574
     H    -2.8110833579   -0.5697057578    2.5330413246
     H    -3.0733811107   -0.2136623793    0.6925156007
