13
-1.2584816609859135e+03 frame 38   xyz file generated by TeraChem
    Fe     0.3491137553   -0.1739731560   -0.2934914492
     N     2.1640376277    0.1612877733    0.1320682632
     C     3.3237366690    0.3264380325    0.3792017000
     S     4.8722296218    0.5526126769    0.7199869601
     N    -0.8325395765   -1.2510668987   -1.3293186909
     C    -1.5289818138   -1.9356107455   -2.0218170406
     S    -2.4749679891   -2.8467010791   -2.9400014051
     O    -0.6105545830    1.7733632199   -0.4588582799
     H    -0.3899813332    2.2556669650   -1.2723955016
     H    -1.5787114702    1.6868938254   -0.4559783927
     O    -0.6223347012   -0.4565527734    1.6691265834
     H     0.0597795269   -0.4256115195    2.3619097464
     H    -0.9680984588   -1.3650977405    1.6833716459
