11
-2.0570397625947962e+03 frame 49   xyz file generated by TeraChem
    Fe    -0.0928495320   -0.0554727125   -0.0799144933
     N     1.9227758073   -0.3023469829    0.1320878591
     C     3.0822588201   -0.4568553015    0.2989684438
     S     4.6972762293   -0.6737973304    0.5269427833
     N    -0.8199131509   -1.0267526200   -1.7249796951
     C    -1.2626991652   -1.6043829683   -2.6554874642
     S    -1.8759491158   -2.4072245345   -3.9550977235
     N    -0.3944050065    1.9397681819   -0.3688558976
     C    -0.5908879352    3.0978684902   -0.4998108939
     S    -0.8669572603    4.7085140381   -0.6824014162
    Cl    -1.1404831736   -1.0104787717    1.8140572642
