26
-5.4607392598448246e+02 frame 58   xyz file generated by TeraChem
    Co     0.0043724340   -0.2050589182    0.3658072193
     C     3.0426857398    0.0164102709   -0.2879764690
     O     1.8731082369    0.1539224079    0.1098678666
     H     3.8563565678    0.4570969692    0.3062688753
     H     3.2781997694   -0.5280607823   -1.2135904528
     C    -1.8673200650   -1.1633008611   -1.8370742802
     N    -0.5220541327   -1.2716560294   -1.1626196485
     H     0.2032798178   -1.1058970911   -1.8742696572
     H    -0.3808173820   -2.2514929404   -0.8654238719
     H    -1.9947732074   -0.1681120293   -2.2662765360
     H    -2.6726735716   -1.4047754965   -1.1421766481
     H    -1.8883679670   -1.8962535618   -2.6555988283
     C    -0.3467047035    2.5674911370    0.8326379166
     N    -0.6089105537    1.5155952605   -0.2115350937
     H    -0.0952189234    1.7542980861   -1.0709693186
     H    -1.6059698653    1.4947590493   -0.4605072805
     H     0.7139052168    2.5814693955    1.0944526542
     H    -0.9773986994    2.4096144956    1.7096316581
     H    -0.6060166193    3.5438583115    0.3919266894
     C    -0.8726409849   -1.4485147666    2.5998391069
     N    -1.5056110455   -0.6467317914    1.4914754278
     H    -1.9837565439    0.1717871732    1.8906216597
     H    -2.2404740684   -1.1927504321    1.0272984945
     H    -0.2066793515   -0.8134386086    3.1925674177
     H    -0.3452881872   -2.3192341795    2.1898874682
     H    -1.6609887540   -1.8317512698    3.2664915110
