75
-3.1586870405989457e+03 frame 99   xyz file generated by TeraChem
    Mn    -0.3915013219    0.4011381903   -0.0183093859
     N     1.4697414236    0.7133766007    0.3072995959
     C     2.6196596552    0.9474229053    0.5259176284
     S     4.1698718916    1.2799336996    0.8222131978
     N    -1.6519806583   -0.3723931905   -1.2370134646
     C    -2.4312856025   -0.8581479172   -2.0012843846
     S    -3.4860568679   -1.5222031938   -3.0226486474
     C     0.8555491708    3.9578352495    1.4182970817
     C    -0.5178404376    3.8450595370    1.1349622299
     P    -1.0622536886    2.7253551625   -0.2241221294
     C    -2.8631809590    3.0419737641   -0.4126288583
     C    -3.7681140641    2.1922576192    0.2399506525
     C    -5.1421309028    2.4114930753    0.1366862278
     C    -5.6249089292    3.4751234299   -0.6268307432
     C    -4.7302786479    4.3217905387   -1.2852805855
     C    -3.3559506136    4.1089422076   -1.1799572007
     C    -0.2966034725    3.4015701055   -1.7540988298
     C    -0.2592007425    2.5721925393   -2.8877555273
     C     0.3045719428    3.0321741823   -4.0774196846
     C     0.8387421928    4.3203008544   -4.1476910598
     C     0.8033401902    5.1500620064   -3.0259596747
     C     0.2385343468    4.6955544362   -1.8330423531
     C    -1.4375844390    4.5326409819    1.9410522435
     C    -0.9935940356    5.3174155772    3.0075806722
     C     0.3702168914    5.4293210150    3.2787696452
     C     1.2935715074    4.7503876780    2.4792491601
     H     1.5866943580    3.4320887063    0.8132373328
     H    -3.4034426209    1.3524741672    0.8228350335
     H    -5.8303557710    1.7412656835    0.6438090871
     H    -6.6952419226    3.6400822278   -0.7159344727
     H    -5.1021778163    5.1467095134   -1.8868937651
     H    -2.6681916009    4.7667148087   -1.7028556577
     H    -0.6762960110    1.5696417568   -2.8410708047
     H     0.3296199433    2.3804259619   -4.9461591365
     H     1.2842471719    4.6751513650   -5.0730086182
     H     1.2182584895    6.1531664887   -3.0756672261
     H     0.2240526260    5.3450495703   -0.9635588217
     H    -2.5008048411    4.4608919073    1.7367382946
     H    -1.7182419675    5.8440565755    3.6227480580
     H     0.7131736112    6.0438894309    4.1068022297
     H     2.3584586647    4.8308143037    2.6786963876
     C     0.9645730142   -2.7637571088    1.0876917785
     C    -0.3032929987   -2.5895564668    1.6702962961
     P    -0.8505240340   -0.8647550612    2.0246632240
     C    -2.6164290629   -1.0090775014    2.5333091571
     C    -3.5707377087   -1.3298204316    1.5505268638
     C    -4.9215638905   -1.4297568162    1.8848390553
     C    -5.3398290600   -1.1934575112    3.1968804119
     C    -4.4009295181   -0.8608111325    4.1736950258
     C    -3.0460220252   -0.7703489906    3.8473178671
     C     0.0654356877   -0.4042037740    3.5495285292
     C     0.4840275758    0.9219397630    3.7244744065
     C     1.1650149470    1.2981210682    4.8832901425
     C     1.4395120406    0.3533891658    5.8722404752
     C     1.0333188356   -0.9725829218    5.7014967695
     C     0.3513079325   -1.3519519272    4.5461293877
     C    -1.0926144162   -3.7155112910    1.9435823419
     C    -0.6208200651   -4.9943128890    1.6408226685
     C     0.6386951052   -5.1612028271    1.0641036030
     C     1.4306505881   -4.0438748851    0.7904817980
     H     1.5897557039   -1.9015548562    0.8709632148
     H    -3.2598297840   -1.4974598924    0.5243112724
     H    -5.6436909765   -1.6870927375    1.1149871231
     H    -6.3928843482   -1.2668988745    3.4549344159
     H    -4.7190465269   -0.6720983065    5.1955073822
     H    -2.3256913892   -0.5144033511    4.6172986700
     H     0.2946234892    1.6602494349    2.9529973334
     H     1.4889533313    2.3280335734    5.0013930595
     H     1.9770372352    0.6452346282    6.7704404473
     H     1.2537429463   -1.7134548117    6.4652927062
     H     0.0479995086   -2.3865058842    4.4144972403
     H    -2.0759512356   -3.5983866669    2.3875762882
     H    -1.2420412894   -5.8597850468    1.8550891504
     H     1.0010218634   -6.1574551645    0.8257983532
     H     2.4116516093   -4.1655392228    0.3398355907
