8
-2.9385319862591911e+02 frame 61   xyz file generated by TeraChem
    Co     0.0711511253   -0.5843080979   -0.3149600694
     C     2.8909100747    0.5481688613   -0.0809848473
     O     2.1802383080   -0.4279864998   -0.2592134494
     H     2.4704342181    1.5427839635    0.1283446331
     H     3.9845792723    0.4427318815   -0.1219359819
     I    -0.4319059149   -0.4650881989   -2.8203454594
     I    -0.5852203236    1.2102952552    1.6874642597
     I    -0.4551203382   -2.2655691804    1.7806106306
