17
-3.2965465359097442e+02 frame 55   xyz file generated by TeraChem
    Mn     0.0012662725    0.0090650144   -0.0046466704
     N     1.8826369383   -0.8044228508    0.4446738934
     H     2.3818142511   -0.3685561389    1.2262461896
     H     1.8368526468   -1.8002093813    0.6891310891
     H     2.5413379723   -0.7605142205   -0.3415435317
     N    -0.2295504027   -1.3462518127   -1.5877131866
     H     0.2457624339   -1.0432203651   -2.4463876773
     H     0.1425900316   -2.2840818588   -1.4043691585
     H    -1.2018433526   -1.5088456663   -1.8709054557
     N    -1.6617384876    1.0997017025   -0.6637064975
     H    -1.8273039862    1.0684886610   -1.6752323027
     H    -2.5435816099    0.7791548642   -0.2453595136
     H    -1.6176218102    2.1008468901   -0.4438444639
     N     0.0057813851    1.0651307369    1.8084427001
     H     0.7732982030    1.7418423993    1.8872884062
     H    -0.8428376021    1.6041005901    2.0064388232
     H     0.1128729053    0.4475485204    2.6214824668
