9
-6.2184795003901729e+02 frame 20   xyz file generated by TeraChem
    Ni     0.3204793981   -0.1012230272    0.4038623423
     C     2.2075111222    0.2664961598   -0.4528582543
     O     3.2119694109    0.4620681686   -0.9126460989
     C    -0.4117922713   -1.3767037884   -1.1151432136
     O    -0.8044107524   -2.0466093320   -1.9251135912
     C    -0.6013501421    1.7182649960   -0.1501774194
     O    -1.0925167088    2.6814352359   -0.4503302701
     C    -1.0478942979   -0.6572786034    1.9025617372
     O    -1.7821035955   -0.9464971284    2.6998136325
