15
-6.7143203329843789e+02 frame 41   xyz file generated by TeraChem
    Fe     0.1389183533   -1.1660991196   -0.2572140000
     C     4.6824230868    0.9007402941    0.1943074818
     C     3.6722311308    1.5349635753   -0.5349980604
     C     2.4126703614    0.9429273040   -0.5940369618
     N     2.1430828536   -0.2227677306    0.0149107264
     C     3.0984657288   -0.8203596751    0.7433588964
     C     4.3842819757   -0.2951680406    0.8536967067
     H     5.6788577730    1.3335840215    0.2540356642
     H     3.8543441311    2.4781911884   -1.0441429254
     H     1.5533232156    1.3695984605   -1.1049629503
     H     2.7667762205   -1.7267497850    1.2433275374
     H     5.1333959356   -0.8098332827    1.4504186554
     F    -0.3973887027   -2.3996898129   -1.5180798469
     F    -0.4380742686    0.5836620499   -0.6121288041
     F     0.4801316603   -2.0134826271    1.3627476980
