11
-1.5709388095360716e+03 frame 19   xyz file generated by TeraChem
    Cr     0.2440973152    0.5624039839   -0.3360942150
     S     2.4769377016    0.8913303592   -0.5666185095
     C     3.2227581273   -0.5514779489   -0.0525606472
     N     3.7966910214   -1.5179249041    0.2924759324
     S    -0.7909700591   -0.3407183588   -2.1241391056
     C    -0.3308264031   -1.9793084390   -2.0685741540
     N    -0.0395496608   -3.1185095358   -2.0799976607
     S    -0.1949260859    2.7709232264   -0.6500251907
     C    -1.8436101758    2.9069954923   -1.0536961644
     N    -2.9742785401    3.0557947952   -1.3412097964
     I    -0.6057568799   -0.2252492086    1.9736552235
