48
-1.3728116802678228e+03 frame 49   xyz file generated by TeraChem
    Mn     0.0009055370   -0.0537134280    0.0406959078
     C     4.6444155000    0.3925032306   -0.7668220207
     C     3.7488149509    1.4447767051   -1.0405878101
     C     2.4029146906    1.2726272714   -0.7694986689
     N     1.9104018523    0.1153447326   -0.2399641695
     C     2.7774003565   -0.9047400213    0.0323588877
     C     4.1326227693   -0.8032620111   -0.2178064563
     C     6.0367659970    0.5314009095   -1.0334364421
     H     4.1015127977    2.3833635604   -1.4557521232
     H     1.6951367896    2.0713369683   -0.9615734651
     H     2.3587037642   -1.8099798341    0.4604288840
     H     4.7898812506   -1.6360188215    0.0114969160
     N     7.1750559194    0.6438648460   -1.2506432178
     C    -1.9986759858   -2.5322192757   -3.4499226171
     C    -0.6228507614   -2.6543039947   -3.1699055718
     C    -0.0696489992   -1.8891174666   -2.1594420765
     N    -0.8117609185   -1.0090193027   -1.4250610431
     C    -2.1464004341   -0.8896421694   -1.6941659330
     C    -2.7655110121   -1.6265023657   -2.6854668244
     C    -2.6035243810   -3.3052045453   -4.4818727100
     H     0.0025096666   -3.3363678064   -3.7369183948
     H     0.9874206911   -1.9605048963   -1.9293455146
     H    -2.7105081502   -0.1854535989   -1.0913717692
     H    -3.8280765388   -1.5034967624   -2.8692069727
     N    -3.0990330525   -3.9371731224   -5.3249697281
     C    -2.0389768787    4.2180323451    0.1085800572
     C    -1.7474170785    3.5894343811   -1.1216372678
     C    -1.1723347471    2.3328646496   -1.1177041123
     N    -0.8706677685    1.6777207328    0.0423578661
     C    -1.1484718823    2.2837054520    1.2332090506
     C    -1.7289406455    3.5377863203    1.3027815286
     C    -2.6348156524    5.5115037259    0.1392655927
     H    -1.9728160570    4.0795810970   -2.0634403805
     H    -0.9430688425    1.8253762506   -2.0494697683
     H    -0.9052460831    1.7365065658    2.1375412438
     H    -1.9414709492    3.9830103562    2.2693770126
     N    -3.1207573655    6.5692324447    0.1624853061
     C    -0.5540382102   -2.2248701369    4.1819350163
     C     0.5008809441   -1.3207822259    3.9964298701
     C     0.6588031449   -0.7116099603    2.7620019004
     N    -0.1927740033   -0.9661808917    1.7251498785
     C    -1.2208221748   -1.8445257977    1.9064327083
     C    -1.4236344495   -2.4877553448    3.1180112363
     H    -0.6932538062   -2.7171765775    5.1406492991
     H     1.1965734770   -1.0926824942    4.7979413438
     H     1.4648118321   -0.0087723578    2.5758382844
     H    -1.8692978092   -2.0246876946    1.0559609394
     H    -2.2493444731   -3.1848188312    3.2204850526
