15
-5.0472837681967178e+02 frame 87   xyz file generated by TeraChem
    Fe    -0.0313346826    0.0669437412   -0.1110064310
     C     2.9920428251    0.0987971292   -0.0939729380
     O     1.8536460554   -0.2642927500    0.2179399299
     H     3.8522547530   -0.4259735952    0.3392843746
     H     3.1616568512    0.9321812976   -0.7886973811
     C    -0.2876266714   -2.3706148446   -1.8803205510
     O    -0.1213814850   -1.1767624328   -1.6156448907
     H    -0.2277494701   -2.6943014162   -2.9267543051
     H    -0.4964013547   -3.1132646183   -1.0985089997
     O    -1.6349294959    1.0310201669   -0.7317670639
     H    -2.0266449216    0.9211817607   -1.6200523454
     H    -2.0266280561    1.8330130383   -0.3348794943
     O    -0.2985413940    0.4791386084    1.8106121055
     H    -1.1553211505    0.5734465323    2.2690837302
     H     0.3836039023    0.3150489625    2.4900348140
