15
-4.3350174306308611e+02 frame 27   xyz file generated by TeraChem
    Co    -0.6257159845   -0.2338300982   -0.2716000862
     C     2.4988585920    0.4166343285    0.3952989465
     N     1.4374580307    0.1022602548    0.0634473559
     C     3.8323007499    0.8206862683    0.8212001105
     H     3.9349474344    0.6760917976    1.9011357924
     H     3.9928944806    1.8770744956    0.5849131958
     H     4.5890342419    0.2201729224    0.3075127210
     C    -0.2501094880   -2.4601170660   -2.6224847232
     N    -0.2434589245   -1.6551292761   -1.7934014194
     C    -0.2705738409   -3.4781195578   -3.6646341425
     H     0.7516014599   -3.7596134957   -3.9350145445
     H    -0.7810469239   -3.0907153844   -4.5516714338
     H    -0.8017873144   -4.3646173322   -3.3046202520
     I    -1.3940860623    1.9366037604   -1.5124150622
     I    -1.3469717793   -1.7767955435    1.7180578379
