45
-1.2662770397637873e+03 frame 60   xyz file generated by TeraChem
    Fe     0.1745894448   -0.1836968838   -0.2184901695
     C    -3.0324378310   -0.6947308098    2.6629343797
     C    -3.6659459416   -1.8108671717    2.1453138201
     C    -3.1727548652   -2.4117367233    0.9631610653
     C    -3.7513257880   -3.5744751782    0.3494248861
     C    -3.2189895368   -4.1067937491   -0.7892574609
     C    -2.0555910994   -3.5288755612   -1.4023492055
     C    -1.4543969584   -4.0223271945   -2.5842427461
     C    -0.3374338309   -3.3896534010   -3.1010859873
     C     0.1969542621   -2.2774999722   -2.4309224116
     N    -0.3393578170   -1.7939953118   -1.3052930957
     C    -1.4623854143   -2.3942303768   -0.8070039079
     C    -2.0375693591   -1.8190483674    0.3683250292
     N    -1.4365735090   -0.6967520398    0.8673521054
     C    -1.9197734865   -0.1607892665    1.9932843876
     H    -3.3823909622   -0.2228326995    3.5744210268
     H    -4.5347981155   -2.2334703744    2.6419519678
     H    -4.6264378866   -4.0229779046    0.8092373567
     H    -3.6679291261   -4.9814568562   -1.2495016535
     H    -1.8773795051   -4.8907874061   -3.0812434719
     H     0.1347874662   -3.7398524394   -4.0123132831
     H     1.0745333989   -1.7656827273   -2.8114391559
     H    -1.4073287360    0.7161542875    2.3744162997
     C    -0.3694903099    4.0782827932    0.4182127513
     C     0.9364372622    4.5210822215    0.3035974046
     C     1.9727438906    3.5914227322    0.0499926196
     C     3.3568400718    3.9486641907   -0.0912269115
     C     4.3060101725    2.9999565482   -0.3407066007
     C     3.9492214884    1.6159259488   -0.4837055138
     C     4.8793429928    0.5801878383   -0.7380011713
     C     4.4370118414   -0.7257141163   -0.8544643696
     C     3.0653846156   -1.0011123528   -0.7378108451
     N     2.1597325337   -0.0445950413   -0.5082872093
     C     2.5918092333    1.2443447838   -0.3626952788
     C     1.6016523046    2.2339730592   -0.0722957531
     N     0.3127383519    1.8014120786    0.0717076648
     C    -0.6443530347    2.7066389440    0.3005826054
     H    -1.1838702448    4.7706221336    0.6008803210
     H     1.1721909381    5.5770406846    0.4015841122
     H     3.6359186067    4.9930569704    0.0078319651
     H     5.3504229554    3.2793886447   -0.4385414371
     H     5.9352805943    0.8164021121   -0.8350885609
     H     5.1296637496   -1.5396835434   -1.0377641261
     H     2.6872872139   -2.0135057278   -0.8283836247
     H    -1.6567075325    2.3281429002    0.3898782175
