26
-1.9603512171614150e+03 frame 138   xyz file generated by TeraChem
    Fe    -0.2443474593    1.5688396197    0.4133623590
     S     1.9144005803    2.0277680370    0.7396967268
     C     2.1083537340    2.1376126555    2.4188106463
     N     2.2542902911    2.1887294033    3.5771447124
     S    -1.5077335799    0.2598566532   -0.8590905875
     C    -1.8275668369   -1.1450561334    0.0356650584
     N    -2.0579988876   -2.1111607717    0.6511580039
     S    -1.1899053105    3.5154200964    0.7132027937
     C    -2.7603540705    3.1114123746    1.2107739307
     N    -3.8438721083    2.8776042821    1.5799201966
     C    -0.5846930332    0.7126375584    2.0093372107
     N    -0.7735413402    0.1752860975    3.0186347739
     C     0.1436968697   -1.6414863168    4.3620798933
     C    -0.0990879981   -2.9350448384    3.8870845209
     C     0.8890833864   -3.9131724008    4.0015540587
     C     2.1189615865   -3.5999033524    4.5838121240
     C     2.3659294147   -2.3048899258    5.0455297181
     C     1.3807336384   -1.3239656493    4.9347721467
     H    -1.0495843266   -3.1708233703    3.4153422512
     H     0.6975972162   -4.9172828299    3.6344690851
     H     3.3245750268   -2.0572451584    5.4920127589
     H     1.5783195565   -0.3111488926    5.2772936423
     H     2.8865104946   -4.3635498345    4.6741286902
     C    -0.9284098525   -0.5775328809    4.2362205341
     H    -0.8852254951    0.1439971565    5.0577330334
     H    -1.9315320638   -1.0128284754    4.2081650954
