25
-6.3386244910655967e+02 frame 76   xyz file generated by TeraChem
    Mn    -0.0012192075   -0.0020181581    0.0010511646
     C     1.7828576001   -0.9155048298    0.3632832504
     N     2.7951271101   -1.4346201809    0.5702245304
     C     4.0515195364   -2.0796712154    0.8262843155
     H     4.0538351690   -3.0459786055    0.3102223771
     H     4.1544472143   -2.2202939950    1.9073406644
     H     4.8513947239   -1.4360446923    0.4436348180
     C     0.2690574210   -0.2971323306   -1.9961020353
     N     0.4218751879   -0.4629889585   -3.1301875193
     C     0.6101672467   -0.6689158017   -4.5383594896
     H     0.3017157545    0.2414931927   -5.0634827235
     H    -0.0085679257   -1.5195773788   -4.8451670262
     H     1.6697903346   -0.8777035908   -4.7191083410
     C    -1.7861271813    0.9098934693   -0.3616068566
     N    -2.7988305069    1.4277512676   -0.5695886416
     C    -4.0550372877    2.0726342016   -0.8281212216
     H    -4.7434834212    1.8265442981   -0.0126583835
     H    -4.4421279286    1.7034219393   -1.7836630207
     H    -3.8812946843    3.1535362549   -0.8738200150
     C    -0.2695241307    0.2975512779    1.9977645816
     N    -0.4205530280    0.4671713065    3.1315339107
     C    -0.6062611074    0.6775260835    4.5392646639
     H    -0.5816724732   -0.2975520028    5.0381384067
     H    -1.5752216331    1.1639957689    4.6922878708
     H     0.2071613943    1.3163178443    4.9006435466
