31
-1.1672770068266686e+03 frame 79   xyz file generated by TeraChem
    Fe     0.0334059738    0.0627833011    0.1346593826
     C     3.1598564955    0.5642008664    0.4126094526
     N     2.0179730663    0.3428785649    0.4423970394
     C     4.5817747356    0.8388796045    0.3749280496
     H     4.9308650461    1.1397611520    1.3702755199
     H     4.7799665942    1.6519403403   -0.3347876450
     H     5.1249906905   -0.0590415541    0.0555449070
     C    -0.6320279981   -1.7293560960   -2.4078588699
     N    -0.4653526857   -1.1262863430   -1.4275543014
     C    -0.8405068510   -2.4816432748   -3.6288357622
     H     0.1012944982   -2.5480729655   -4.1873561507
     H    -1.5917242098   -1.9779436258   -4.2496567037
     H    -1.1893733718   -3.4932847410   -3.3890888758
     C    -1.3375792508    2.8898726237   -0.4095078779
     N    -0.8996490808    1.8423796569   -0.1587733260
     C    -1.8824437255    4.1967172710   -0.7210653361
     H    -1.4778557683    4.5470231649   -1.6783450853
     H    -1.6093181801    4.9087212707    0.0672983707
     H    -2.9752625071    4.1379379492   -0.7904729089
     C    -1.7735532241   -2.0267006602    4.2299061726
     C    -2.5349802343   -1.9603800588    3.0338826635
     C    -1.9597823732   -1.3711560532    1.9196366751
     N    -0.7023403594   -0.8538851501    1.9231026089
     C     0.0270789151   -0.9175048794    3.0614395340
     C    -0.4576798662   -1.4880794911    4.2315371179
     S    -2.3370011419   -2.7249074053    5.7118237208
     H    -3.5438153273   -2.3566667145    2.9697828448
     H    -2.5174405004   -1.3117189813    0.9898502421
     H     1.0269344834   -0.4980798005    3.0305524275
     H     0.1682298866   -1.5123688863    5.1193271173
     H    -3.5727489219   -3.1007909067    5.2957419700
