11
-5.9168663210181444e+02 frame 61   xyz file generated by TeraChem
    Mn    -0.5787524897   -0.0438001838   -0.3346556954
     O     1.2165343977    0.2806364645   -0.1326883768
     N     2.4196812733   -0.8562865044    1.6752899015
     C     1.8556306058   -0.3295119040    0.7931853150
     O    -0.6234470455   -1.3077976655   -1.5828301761
     N     1.0108545710   -2.1080630079   -3.2209559939
     C     0.2512280568   -1.7076735144   -2.4264375628
     O    -0.9459463754    1.5883716749   -0.7220065825
     H    -0.1616085758    2.1723796568   -0.6713483230
     O    -0.9530681203   -0.4144500284    1.2960400250
     H    -0.1872758999   -0.4556453914    1.9093309471
