55
-1.3467340439496450e+03 frame 97   xyz file generated by TeraChem
    Fe    -0.2548299952    0.1584633700    0.1033969736
     C     1.8709822971    0.4212789411   -0.2213333748
     N     3.0300426037    0.4970673634   -0.2692826977
     C     5.1608311503    1.5076607324   -1.1080481579
     C     4.5140031285    2.2528741701   -2.0933185446
     C     5.2532054007    3.1347975859   -2.8798964765
     C     6.6533694753    3.2767993514   -2.6846615617
     C     7.3036157376    2.5279996156   -1.6979373454
     C     6.5686833500    1.6506272354   -0.9138955801
     H     3.4461887810    2.1506470854   -2.2568633482
     H     4.7619086580    3.7181467370   -3.6522573874
     H     8.3724635232    2.6324374756   -1.5439221810
     H     7.0680486447    1.0674473538   -0.1441901421
     H     7.2130014070    3.9689954151   -3.3062136237
     C     4.4672616163    0.4973685430   -0.2145033638
     H     4.7367787650    0.6675413017    0.8354160943
     H     4.7906669684   -0.5211280795   -0.4696023944
     C    -0.8261007061   -1.4091302888   -1.2597963120
     N    -1.1078747334   -2.2361976747   -2.0264144816
     C    -2.7300357596   -3.8716314678   -2.9996239055
     C    -3.7501713139   -3.4885975732   -2.1305009546
     C    -4.9868318605   -4.1288175568   -2.2033542435
     C    -5.2111115498   -5.1623340731   -3.1523001772
     C    -4.1878106466   -5.5474216975   -4.0246498552
     C    -2.9568409940   -4.9114736468   -3.9529626580
     H    -3.5949275874   -2.7003837698   -1.4012050079
     H    -5.7894488040   -3.8390699636   -1.5324029722
     H    -4.3526690066   -6.3361938192   -4.7510627587
     H    -2.1576487379   -5.2067262404   -4.6284807868
     H    -6.1806410614   -5.6490421728   -3.1943040538
     C    -1.3493816492   -3.2433882338   -3.0224354689
     H    -1.1609359001   -2.7709674717   -3.9958831940
     H    -0.5772524063   -4.0116909663   -2.8848122167
     C    -2.9086282435    4.0355673562   -1.0535905374
     C    -1.6357224582    3.8723155050   -1.6064602418
     C    -0.8944136899    2.7502474532   -1.2637407912
     N    -1.3597522062    1.8064977509   -0.4091012624
     C    -2.5985735943    1.9687398028    0.1214532568
     C    -3.3964331177    3.0644488155   -0.1749130719
     H    -3.5102925192    4.9045800729   -1.3026757705
     H    -1.2222408880    4.6043167931   -2.2918649292
     H     0.0988246120    2.5911955625   -1.6727830468
     H    -2.9426372334    1.1950883799    0.8022966881
     H    -4.3789307262    3.1539651735    0.2761611490
     C    -0.5517048130   -1.0367906645    4.7762831096
     C    -0.3431001359   -2.0356914676    3.8211855973
     C    -0.2640224531   -1.6768852734    2.4834984309
     N    -0.3847863686   -0.3915357749    2.0678752827
     C    -0.5831654160    0.5752741936    3.0003109231
     C    -0.6721903901    0.2905901491    4.3557293304
     H    -0.6180207721   -1.2882069293    5.8306453820
     H    -0.2430570898   -3.0773111023    4.1069662448
     H    -0.0997383523   -2.4213331978    1.7106692625
     H    -0.6742945832    1.5962487652    2.6396665747
     H    -0.8329164675    1.0947869795    5.0658756259
