46
-1.1884156942433508e+03 frame 239   xyz file generated by TeraChem
    Mn    -0.0222369167    0.0005088276   -0.0131024176
     C     4.8552231858   -0.6529756124   -0.7538701723
     C     3.9578816535   -0.6696921787   -1.8430738079
     C     2.6066678743   -0.4912870602   -1.5901021352
     N     2.1077677129   -0.2982859973   -0.3404947164
     C     2.9752083244   -0.2855890735    0.7022476974
     C     4.3432928088   -0.4566417539    0.5472676423
     C     6.2513805356   -0.8314126170   -0.9613010841
     H     4.3142864711   -0.8186820861   -2.8569532023
     H     1.8937685717   -0.5046694388   -2.4097165073
     H     2.5535867960   -0.1379255358    1.6916714274
     H     5.0025593834   -0.4389478210    1.4087468458
     N     7.3999070057   -0.9783255067   -1.1308255760
     C    -2.3878831955   -3.2819953484   -2.9271646555
     C    -1.2693269691   -3.6593139045   -2.1819076026
     C    -0.6192556802   -2.6984839861   -1.3954587253
     N    -1.0311797057   -1.4085004079   -1.3152333719
     C    -2.1148271529   -1.0515988629   -2.0446293491
     C    -2.8154866883   -1.9540611435   -2.8584220113
     H    -2.9119840379   -4.0031636647   -3.5474778971
     H    -0.8893124440   -4.6758110148   -2.2066482279
     H     0.2644099453   -2.9685622784   -0.8232541314
     H    -2.4338210020   -0.0157779789   -1.9788279565
     H    -3.6799077581   -1.6089858572   -3.4169403901
     C    -1.6774412203    4.6234915163   -0.8953734686
     C    -0.4497705663    4.1965638352   -1.4061328980
     C    -0.0106153205    2.8946682957   -1.1265577056
     N    -0.7311263766    2.0188154364   -0.3865933247
     C    -1.9253593832    2.4401786245    0.0999816550
     C    -2.4254809650    3.7300505401   -0.1255110317
     H    -2.0415230092    5.6277518471   -1.0918255088
     H     0.1770731265    4.8556803972   -1.9985234540
     H     0.9515671876    2.5498138502   -1.4932081495
     H    -2.5042660300    1.7216386877    0.6739356551
     H    -3.3908577949    4.0086014176    0.2854882811
     C    -0.9480688313   -0.6237007231    4.8621916565
     C    -0.5901762179    0.6266801389    4.3538846906
     C    -0.3326385611    0.7570859774    2.9812937317
     N    -0.4215607108   -0.2802154285    2.1123190199
     C    -0.7736112176   -1.4875917106    2.6148166218
     C    -1.0414230978   -1.6986241097    3.9760349243
     H    -1.1518178458   -0.7562819557    5.9207279989
     H    -0.4995163600    1.4949092809    4.9991209297
     H    -0.0415644799    1.7192063922    2.5691738094
     H    -0.8548871974   -2.3125740171    1.9125919670
     H    -1.3257258601   -2.6893714633    4.3165161362
