38
-7.9553014073123177e+02 frame 55   xyz file generated by TeraChem
    Co    -0.2537877072    0.0276305135    0.1663820232
     C     1.8942639306   -0.3552739329    0.2240155366
     N     3.0534704406   -0.4632090753    0.1967905071
     C     5.3000727606   -1.5073204416    0.6585109066
     C     4.7762691794   -2.5985945887    1.3558381287
     C     5.6512609927   -3.5486228786    1.8691878370
     C     7.0845969104   -3.4153655559    1.6877831107
     C     7.6134014066   -2.3205005132    0.9872375512
     C     6.7429413086   -1.3775417686    0.4775530976
     H     3.7076456597   -2.7130876439    1.4998052571
     H     5.2730216041   -4.4081393158    2.4161000982
     H     8.6853046641   -2.2177509067    0.8494416150
     H     7.1316877423   -0.5208555014   -0.0688889187
     H     7.7404247352   -4.1771801957    2.1026708182
     C     4.4819022936   -0.3951618892    0.0433525867
     H     4.6873207436   -0.3477932719   -1.0369198616
     H     4.8044833831    0.5692910683    0.4639749606
     C    -2.4734054500   -0.9679451133   -1.7021454463
     N    -1.1206256138   -1.3351158805   -1.1494575807
     H    -0.4929540474   -1.5081143375   -1.9410071215
     H    -1.2014708226   -2.2496917479   -0.6940181147
     H    -2.3850175842   -0.0540662266   -2.2922884442
     H    -3.1701466257   -0.8094545654   -0.8772475331
     H    -2.8575489941   -1.7651669359   -2.3433704967
     C    -1.7552626364    2.6677104456   -0.3050150435
     N    -0.4695981241    1.9457166018   -0.6186086568
     H     0.3050857366    2.5456347148   -0.3192628904
     H    -0.3733474086    1.9030500451   -1.6385381653
     H    -1.8094676062    2.8480152502    0.7699484432
     H    -2.6016299787    2.0551931778   -0.6208373127
     H    -1.7958720247    3.6271932333   -0.8266322044
     C    -2.4711540681   -0.2014171888    2.2689780856
     N    -0.9737625837   -0.1531706085    2.1062756342
     H    -0.5832913701   -0.9903139809    2.5499161384
     H    -0.6167498290    0.6207755711    2.6760192015
     H    -2.8610144179   -1.0817598678    1.7547002799
     H    -2.9116796619    0.7010545564    1.8425062055
     H    -2.7415023349   -0.2623855701    3.3261153743
