15
-6.8867046743420053e+02 frame 80   xyz file generated by TeraChem
    Fe     0.4064270406   -0.3773235801   -0.5577559379
     O     2.2913210219   -0.1624787401   -0.3938250823
     N     3.3309972988   -0.0132179483    1.8100977136
     C     2.8458897370   -0.0772712394    0.7411738022
     O    -0.8464759869   -1.1835495689   -1.7941807660
     N    -2.8706112699    0.0603456693   -2.3299307140
     C    -1.9090660664   -0.5803995421   -2.0952787538
     C    -1.6094785123    1.8478119195   -0.8805240387
     O    -0.4143826750    1.5416330624   -0.8706290780
     H    -2.3344731736    1.3956590936   -0.1937554257
     H    -1.9660681499    2.6548704870   -1.5320198061
     C     0.2887790833   -0.7970761066    2.5647468339
     O    -0.1844345732   -0.7545996451    1.4338217783
     H     1.3495971537   -0.5699964505    2.7481372903
     H    -0.3659435558   -1.0689268708    3.4070793824
