31
-2.3791296581112620e+03 frame 40   xyz file generated by TeraChem
    Mn    -0.0386290088   -0.1812536425   -0.1440613724
     N     1.8924054356    0.1512434020    0.1891683065
     C     3.0179000872    0.4359232667    0.4695411044
     S     4.5289022111    0.8368794624    0.8650335359
     N    -1.2251534093   -1.3024913883   -1.2651570792
     C    -1.9918426347   -1.9506516361   -1.9126369494
     S    -3.0433808643   -2.8147087700   -2.7756715826
     C    -1.5463025756    4.4529311032   -1.3631637810
     C    -0.3211347355    4.2389499859   -0.7152809293
     C     0.0443431002    2.9433279565   -0.3780236465
     N    -0.7264275910    1.8713765701   -0.6407837179
     C    -1.8994194960    2.0764969934   -1.2715979886
     C    -2.3462514069    3.3346911010   -1.6453131310
     S    -2.1328825705    6.0505805945   -1.8468419502
     H     0.3470555026    5.0605145702   -0.4785661002
     H     0.9929589715    2.7374821259    0.1090393014
     H    -2.4804650161    1.1856915700   -1.4912245732
     H    -3.2986415619    3.4384308138   -2.1550590517
     H    -1.0644384304    6.7504702158   -1.4141060662
     C    -1.5544852967   -1.3881498263    4.4904184950
     C    -0.3274154639   -0.7437510497    4.2766972940
     C     0.0407184956   -0.4103701406    2.9808253847
     N    -0.7291729776   -0.6738005121    1.9084074241
     C    -1.9039341843   -1.3014015314    2.1132619393
     C    -2.3534773582   -1.6710905339    3.3716875254
     S    -2.1445483013   -1.8666220605    6.0883502477
     H     0.3401369686   -0.5067450291    5.0986946441
     H     0.9907409455    0.0740108563    2.7750755064
     H    -2.4842454930   -1.5217328152    1.2221429337
     H    -3.3072815608   -2.1782306508    3.4752519317
     H    -1.0767356197   -1.4334376499    6.7889208222
