41
-1.1138054525857754e+03 frame 50   xyz file generated by TeraChem
    Fe     0.1181632911   -0.1217511738   -0.1429925609
     N    -1.2417003651   -0.8606992478   -1.3980175811
     N    -0.8749968713   -1.2467849442    1.1728999750
     C    -1.2709248776   -0.6830028530   -2.7333863396
     H    -0.5429419229    0.0090322098   -3.1426451303
     C    -2.1741166148   -1.3490636447   -3.5546178944
     H    -2.1613318442   -1.1772326627   -4.6252545395
     C    -3.0782877470   -2.2339845014   -2.9682919065
     H    -3.7987781766   -2.7722570632   -3.5762498902
     C    -3.0414888517   -2.4343978626   -1.5874389207
     H    -3.7259568018   -3.1360595930   -1.1257971579
     C    -2.8226965601   -2.6168262144    1.4549769699
     H    -3.6828251897   -3.1212588888    1.0312346923
     C    -2.5913388177   -2.6714368466    2.8304062661
     H    -3.2652427251   -3.2291628212    3.4732013448
     C    -1.4969112874   -1.9936390768    3.3663738663
     H    -1.2909545605   -2.0005882871    4.4310273498
     C    -0.6638203344   -1.2911375452    2.5023639114
     H     0.1921505551   -0.7383889036    2.8735630135
     C    -2.1077251263   -1.7402891875   -0.8197217625
     C    -1.9516349989   -1.8927714008    0.6426715989
     N     1.9592751721   -0.0134771701    0.6082163650
     N     0.6207079465    1.6425255204   -0.9217689321
     C     2.5931334067   -0.9816513043    1.2980385641
     H     2.0090030957   -1.8614214723    1.5454209893
     C     3.9285550918   -0.8771443002    1.6720616103
     H     4.4003360396   -1.6816355350    2.2254063412
     C     4.6313711579    0.2730617831    1.3150976887
     H     5.6751139666    0.3905707362    1.5893012024
     C     3.9834690485    1.2722728432    0.5868688239
     H     4.5270232598    2.1601818349    0.2866081162
     C     2.3115114970    3.3433354220   -0.9185179915
     H     3.2954425022    3.6847187113   -0.6202943226
     C     1.4734359515    4.1840109728   -1.6527970539
     H     1.8113151417    5.1760350539   -1.9357819205
     C     0.1993237526    3.7406831962   -2.0058992776
     H    -0.4852634887    4.3692294532   -2.5646595347
     C    -0.1893655014    2.4624408971   -1.6190223532
     H    -1.1743948437    2.0781129382   -1.8615578699
     C     2.6444889018    1.1051239486    0.2375788763
     C     1.8616193119    2.0741137636   -0.5589781459
