14
-5.6662330103947181e+02 frame 70   xyz file generated by TeraChem
    Fe     0.3655482526    0.0194005982   -0.7595838926
     C     2.5339553396    0.4376187808    1.0612462660
     O     1.9949205037    0.8627494535    0.0390673328
     H     2.1158911075   -0.4204828876    1.5998316926
     H     3.4438610276    0.9322399396    1.4219709113
     C    -1.2851278320   -2.1295233357   -1.6288214315
     O    -0.8065369069   -1.0481802888   -1.9728844128
     H    -1.1073140107   -2.5257676049   -0.6223503741
     H    -1.8915035307   -2.6913618934   -2.3494861731
     C    -0.5253354752    2.7380694023   -1.8080863778
     O     0.0580895041    1.6623149114   -1.7991953661
     H    -1.2135053481    3.0279821695   -1.0013730920
     H    -0.3641653644    3.4345800159   -2.6403079974
     F     0.3781386709   -1.2337277844    0.4565204763
