45
-1.1156441490288621e+03 frame 48   xyz file generated by TeraChem
    Fe    -0.1446730651    0.0198274651    0.1481746164
     C     2.9753782097    0.5236705289   -0.3734103608
     N     1.8463201754    0.3448372403   -0.1679826700
     C     4.3867815816    0.7450588814   -0.6276841451
     H     4.9406162633    0.7359686756    0.3180738829
     H     4.5278135808    1.7142614698   -1.1198624260
     H     4.7728489692   -0.0475110721   -1.2794403953
     C    -1.0557702031   -2.0790365945   -2.0931426354
     N    -0.7350607348   -1.3309512581   -1.2646986757
     C    -1.4585791720   -3.0128986265   -3.1283026923
     H    -0.5702796221   -3.4547898961   -3.5945197506
     H    -2.0451572774   -2.4906628903   -3.8928069885
     H    -2.0687883147   -3.8106795818   -2.6890927193
     C    -1.1428673393    1.8814242789   -0.1559503984
     N    -1.6517191855    2.8805376466   -0.4561150311
     C    -2.9420018157    4.9620784634    0.0622098976
     C    -3.2442244913    4.5525597603    1.3586694351
     C    -3.9346465911    5.4206115135    2.2054124261
     C    -4.3281799302    6.7104847523    1.7557176678
     C    -4.0243183997    7.1215533652    0.4548310204
     C    -3.3368400071    6.2595992584   -0.3885470932
     H    -2.9545841108    3.5695740784    1.7151698280
     H    -4.1799031261    5.1129947114    3.2170469455
     H    -4.3203692020    8.1049279739    0.1050793274
     H    -3.0972784472    6.5726761691   -1.4016918916
     H    -4.8650652574    7.3710136473    2.4295571460
     C    -2.2351170390    4.0941804937   -0.9619830202
     H    -1.4197610833    4.6501231078   -1.4416759481
     H    -2.9336122216    3.7945308266   -1.7554790540
     C    -0.5010189844   -0.8315746604    2.0726862128
     N    -0.6798748996   -1.2636437697    3.1348992100
     C    -0.4959163884   -3.1005263997    4.8256090492
     C     0.3150882892   -3.8843966717    4.0084542456
     C     0.7016674473   -5.1524849176    4.4446587055
     C     0.2765546152   -5.6435378676    5.7083920665
     C    -0.5364917440   -4.8560862893    6.5286157812
     C    -0.9236899889   -3.5954282165    6.0955984423
     H     0.6541434151   -3.5220569622    3.0433943761
     H     1.3361129277   -5.7723020551    3.8188788033
     H    -0.8655169464   -5.2247002504    7.4944649818
     H    -1.5571891694   -2.9787993735    6.7283232203
     H     0.5886064194   -6.6322043062    6.0304937480
     C    -0.9555101778   -1.6963551790    4.4785253713
     H    -0.4772587740   -0.9629069540    5.1422924758
     H    -2.0398157026   -1.6011999589    4.6172098035
