40
-1.5984088879791530e+03 frame 117   xyz file generated by TeraChem
    Cr     0.2548827699   -0.2491723787   -0.3229397900
     S     2.4887595756    0.1922626999   -0.6482451827
     C     2.4728299254    1.7236536329    0.0688925103
     N     2.3802736051    2.7514867762    0.6189610059
     C    -2.9375742970   -3.2775129453   -2.3537450695
     C    -1.5721533470   -3.5764017432   -2.1955996440
     C    -0.7611355979   -2.6508671178   -1.5594054794
     N    -1.2296485940   -1.4666811677   -1.0864536823
     C    -2.5449144808   -1.1796068297   -1.2415988424
     C    -3.4242703363   -2.0522580526   -1.8619948256
     C    -3.8146736303   -4.2016556715   -3.0009092212
     H    -1.1565532587   -4.5088667246   -2.5616626100
     H     0.2997536960   -2.8632401949   -1.4238647619
     H    -2.8843705651   -0.2244119595   -0.8572467934
     H    -4.4710257391   -1.7884473005   -1.9669979569
     N    -4.5300136009   -4.9534464014   -3.5255195757
     C    -1.4957656844    3.9819093515   -1.7349211330
     C    -0.8073838208    3.1523426813   -2.6381029407
     C    -0.3427180045    1.9234279144   -2.2009624502
     N    -0.5365413928    1.4935925795   -0.9273474252
     C    -1.2026061727    2.2884088906   -0.0519091379
     C    -1.6943874806    3.5299742211   -0.4180568863
     C    -1.9865076775    5.2590036375   -2.1467366396
     H    -0.6295319472    3.4646159202   -3.6613839742
     H     0.2062905623    1.2683560556   -2.8689629490
     H    -1.3359837748    1.9172423732    0.9584353389
     H    -2.2183349074    4.1414279190    0.3083581879
     N    -2.3925785471    6.2958471524   -2.4816421117
     C    -0.2680626652   -0.9788607873    4.4049910182
     C    -0.8914919346   -1.8455729873    3.4894404182
     C    -0.7709865160   -1.5935292944    2.1341506215
     N    -0.0619743779   -0.5364671615    1.6523155729
     C     0.5452176581    0.3014844149    2.5372727278
     C     0.4608981417    0.1155917924    3.9066472706
     C    -0.3767553824   -1.2048519428    5.8112067539
     H    -1.4624146745   -2.7015646673    3.8321547927
     H    -1.2431158784   -2.2438512369    1.4086969418
     H     1.1115071003    1.1351857439    2.1325036664
     H     0.9614243673    0.8070755846    4.5758492254
     N    -0.4701669566   -1.3879669518    6.9558350755
