29
-1.5648099086192879e+03 frame 102   xyz file generated by TeraChem
    Cr     0.2750041139   -0.1926245285   -0.3953991707
     S     2.5654324805    0.2266722096   -0.0478658759
     C     2.3947929124    1.5514129090    0.9874584743
     N     2.1958424113    2.4650373577    1.6903864962
     S    -1.0602605689   -1.5400857925   -1.7966319937
     C    -2.4998932445   -1.5066824882   -0.9139125985
     N    -3.4686479252   -1.4377808592   -0.2619383607
     C    -1.7941291436    4.0595378838   -1.0834905379
     C    -0.4439617823    3.8911804076   -1.3920555576
     C     0.1539103960    2.6616154588   -1.1567212633
     N    -0.5440955850    1.6191330457   -0.6425788161
     C    -1.8590425912    1.7748143117   -0.3505513722
     C    -2.5093837058    2.9831000312   -0.5543752558
     H    -2.2829706686    5.0136107491   -1.2550669694
     H     0.1504962030    4.6987734721   -1.8045437788
     H     1.2007132534    2.4856157441   -1.3695973383
     H    -2.3919337696    0.9091198411    0.0308362105
     H    -3.5622155334    3.0660733951   -0.3081755344
     C    -0.9561930526   -1.5719186553    4.0024963055
     C    -0.6106696107   -0.2451539980    3.7394988064
     C    -0.2714990798    0.1202450666    2.4448726463
     N    -0.2798135630   -0.7785671091    1.4306123412
     C    -0.6102752716   -2.0695998076    1.6805557756
     C    -0.9481773604   -2.4958052395    2.9568723342
     H    -1.2229956085   -1.8819532676    5.0080932719
     H    -0.5914523701    0.5037159116    4.5235336909
     H     0.0409659873    1.1319315240    2.2084825999
     H    -0.6014280685   -2.7543300730    0.8407560829
     H    -1.2062473831   -3.5368502939    3.1161280663
