41
-2.1393467185064924e+03 frame 69   xyz file generated by TeraChem
    Cr    -0.1646150176    0.2146586077   -0.2110754874
     C     2.7630469946    1.1236049445   -0.8190477571
     O     1.7769040570    0.4718062788   -0.4512485377
     H     3.7505905848    0.6460118501   -0.8224575581
     H     2.6692323267    2.1696235377   -1.1376748249
     C    -1.3136103516   -3.8884662514   -2.3206606335
     C     0.0099739253   -3.6080542468   -1.8905326275
     C     0.2997600980   -2.3977849364   -1.3088404299
     N    -0.6444924308   -1.4186550123   -1.1273882098
     C    -1.9309713883   -1.6839891020   -1.5285063262
     C    -2.2875510912   -2.8714862908   -2.1149316922
     S    -1.8213393919   -5.3600499415   -3.0658783305
     H     0.8090337689   -4.3320373386   -2.0123329862
     H     1.3084432154   -2.1752254077   -0.9750840285
     H    -2.6674794294   -0.9023480459   -1.3718213118
     H    -3.3187703993   -3.0198065135   -2.4204636370
     H    -0.6250914530   -5.9863478563   -3.0476988093
     C    -2.7987840963    3.9346388095   -1.6059715871
     C    -2.3443989401    2.9500365416   -2.5238535920
     C    -1.6431464812    1.8603454863   -2.0673622610
     N    -1.3526277834    1.6626680905   -0.7403208187
     C    -1.7819325692    2.6152680591    0.1528354327
     C    -2.4883224607    3.7260553171   -0.2344083379
     S    -3.6885457510    5.3511421914   -2.0330115190
     H    -2.5405927776    3.0366716316   -3.5876700817
     H    -1.2958876169    1.1015939501   -2.7634752136
     H    -1.5394026304    2.4495151553    1.1967948352
     H    -2.8051422506    4.4383457987    0.5212910920
     H    -3.7385530651    5.1311382137   -3.3644188744
     C    -0.6504326587   -0.6121496429    4.4583042176
     C    -1.7618807205   -0.5708699071    3.5739886611
     C    -1.5662557908   -0.3104356609    2.2395187091
     N    -0.3267338626   -0.0769929955    1.7002624205
     C     0.7530720570   -0.1259838650    2.5468935987
     C     0.6304590213   -0.3783944455    3.8899589593
     S    -0.7448367187   -0.9254486997    6.1535929321
     H    -2.7725100647   -0.7426450816    3.9300010143
     H    -2.4130892805   -0.2786024096    1.5596488454
     H     1.7257690620    0.0502051700    2.1044252077
     H     1.5247700591   -0.3956291388    4.5052350363
     H    -2.0840855732   -1.0816803009    6.2276546906
