10
-1.6368694683589190e+03 frame 42   xyz file generated by TeraChem
    Fe     0.0807537739   -0.4334902096   -0.4221725643
     C     3.1915138908    0.1936805215    0.0622095799
     N     2.0774486405   -0.0111496690   -0.1676447483
     C     4.5933492443    0.4519637756    0.3551304713
     H     4.7497446727    0.4467197946    1.4383378634
     H     4.8830638854    1.4278615396   -0.0463345045
     H     5.2155685205   -0.3242316436   -0.1010190360
    Cl    -0.5574100321   -1.8588813234   -1.8932760872
    Cl    -0.8592889673    1.4775220010   -0.7219616811
    Cl    -0.2654045410   -1.3699251616    1.4941238705
