35
-8.5975447395337881e+02 frame 56   xyz file generated by TeraChem
    Mn    -0.0058262516   -0.0024566493   -0.1336483267
     C     4.7550280539    0.8212416352    0.6682069961
     C     3.9453371143    1.7902796166    0.0717048733
     C     2.6018092124    1.5072304030   -0.1352978208
     N     2.0464344344    0.3218569209    0.2188681159
     C     2.8380951913   -0.6147028864    0.7999701715
     C     4.1890925659   -0.4017433271    1.0373671002
     H     5.8086996411    1.0159001924    0.8439329102
     H     4.3451979504    2.7519943809   -0.2312364294
     H     1.9410634344    2.2364587416   -0.5950809501
     H     2.3661665980   -1.5538527367    1.0757672227
     H     4.7819025061   -1.1797489403    1.5064565817
     C    -0.7809709093   -3.5115722190   -3.4678050989
     C     0.5187984733   -3.1378798572   -3.1192955729
     C     0.6985065316   -2.1353390004   -2.1756524540
     N    -0.3425329073   -1.5039187932   -1.5800459154
     C    -1.6027163411   -1.8703553801   -1.9245328254
     C    -1.8589809299   -2.8641885623   -2.8588752499
     H    -0.9514801797   -4.2938494877   -4.2012062921
     H     1.3829690707   -3.6130474084   -3.5709962329
     H     1.6938047755   -1.8162907069   -1.8811870386
     H    -2.4172222397   -1.3445320920   -1.4340072180
     H    -2.8840120946   -3.1249558482   -3.0998280390
     C    -2.3601951532    4.0883643746   -1.4895045249
     C    -1.9796318960    3.1258896073   -2.4278167892
     C    -1.3154049232    1.9888524134   -1.9894224685
     N    -1.0181425310    1.7768239441   -0.6827799244
     C    -1.3902408048    2.7160619152    0.2213560735
     C    -2.0583746580    3.8773722253   -0.1421267227
     H    -2.8833449308    4.9867469775   -1.8027721308
     H    -2.1940820272    3.2512830837   -3.4836999196
     H    -1.0048235516    1.2185831723   -2.6899340887
     H    -1.1435951207    2.5203245462    1.2607311279
     H    -2.3371268906    4.5987932052    0.6184788614
     I    -1.0785841506   -0.9568789367    2.4139055331
