37
-1.3592228482560608e+03 frame 100   xyz file generated by TeraChem
    Fe     0.4640018006   -0.1377055705   -0.0305982746
     S     2.5952428564   -1.3191364331    0.4213649771
     C     2.3934198846   -0.4537692801   -0.9847039514
     N     1.9519447705    0.2091420773   -1.8649515138
     C    -1.8485408461   -2.9814596620   -3.1654662643
     C    -1.1854956691   -3.5276807993   -2.0665046217
     C    -0.5981480620   -2.6702928321   -1.1429948022
     N    -0.6445487463   -1.3271418863   -1.2698502671
     C    -1.2766464639   -0.8033557279   -2.3394658782
     C    -1.8941580402   -1.5939868480   -3.3016393312
     H    -2.3146156143   -3.6250719597   -3.9052684897
     H    -1.1144705997   -4.6005938859   -1.9238427398
     H    -0.0596638382   -3.0527243478   -0.2817394977
     H    -1.2657350406    0.2776914628   -2.4169320284
     H    -2.3904669433   -1.1250123653   -4.1444258733
     C    -1.3974261811    4.3126253594   -0.6130293581
     C    -0.2058897218    3.9364668875   -1.2298680067
     C     0.2683136433    2.6401635727   -1.0566846756
     N    -0.3794457226    1.7237612656   -0.2989308270
     C    -1.5334950295    2.0976611789    0.2969876380
     C    -2.0741231244    3.3699079485    0.1620953795
     H    -1.7921497809    5.3169935127   -0.7331710248
     H     0.3574611274    4.6305589621   -1.8442909319
     H     1.1792093291    2.2999768764   -1.5353299736
     H    -2.0286641256    1.3472736451    0.9008288243
     H    -3.0064594119    3.6121844401    0.6609661868
     C    -1.5720073122   -0.9628803295    4.2116814012
     C    -2.2095284784   -1.4086840790    3.0541255100
     C    -1.6215089054   -1.1564176448    1.8194329516
     N    -0.4510198331   -0.4960236053    1.6941344804
     C     0.1639744044   -0.0670915735    2.8188916919
     C    -0.3635052253   -0.2771821938    4.0872605361
     H    -2.0059062503   -1.1475354245    5.1895138058
     H    -3.1504558575   -1.9466551463    3.0987856470
     H    -2.0859615690   -1.4804111363    0.8960073727
     H     1.1120127014    0.4443691078    2.6845964407
     H     0.1736993267    0.0864773285    4.9564768184
