17
-1.5170937659244453e+03 frame 44   xyz file generated by TeraChem
    Co     0.0305721988   -0.0026217044    0.0848943657
     P     1.9739220218    1.0862477878   -0.6723820231
     H     2.3387866999    2.2652613968    0.0051483822
     H     3.1857703760    0.3698375811   -0.6520161957
     H     1.9153981211    1.5208925616   -2.0107550923
     P     0.9779730570   -2.1332676134   -0.5800425059
     H     1.7431429470   -2.1496079582   -1.7610244619
     H     1.8887171677   -2.6326933043    0.3715537755
     H     0.1184464570   -3.2310587159   -0.7702427299
     P    -1.0725497280    2.1407605291    0.3453005022
     H    -0.5866170328    3.2467346935   -0.3763608019
     H    -2.4502996864    2.1849731741    0.0621586085
     H    -1.0258290563    2.6100108139    1.6727157627
     P    -1.8782546914   -1.0930251891    0.9167214831
     H    -1.6549617439   -2.2741503761    1.6498179125
     H    -2.7243006130   -0.3814473057    1.7884435721
     H    -2.7802571523   -1.5269124278   -0.0740625984
