17
-3.4851989933006195e+02 frame 50   xyz file generated by TeraChem
    Fe    -0.1888299049    0.1374955080    0.1942046737
     N     1.7469870945    0.0205597923    0.1889108465
     H     2.1588054777    0.5242783182    0.9976925546
     H     2.0969767572   -0.9512433120    0.2509078932
     H     2.1867413822    0.4274992566   -0.6546346330
     N    -0.7866458462   -0.8423759851   -1.3864201960
     H    -0.3756793219   -1.7877082105   -1.4758624058
     H    -1.8150954894   -0.9809697808   -1.3709330458
     H    -0.5780258530   -0.3570184958   -2.2758361291
     N    -0.3693252203    2.0420785498   -0.4009596672
     H     0.1317398902    2.3258388119   -1.2593666955
     H    -1.3593265099    2.2920429843   -0.5776365016
     H    -0.0544116281    2.7134133636    0.3238219807
     N    -0.6198826692   -1.1960939210    1.6280354957
     H    -0.2372282481   -0.9215144936    2.5511496612
     H    -1.6418116341   -1.2794687557    1.7815587941
     H    -0.2952990832   -2.1671960703    1.4854655168
