27
-1.4195832105711922e+03 frame 63   xyz file generated by TeraChem
    Mn    -0.2034965990   -0.2613001603   -0.3234036016
     C     4.5672547197    0.6079557469    0.5624543257
     C     3.8644954763    1.3317246566   -0.4181311247
     C     2.5358090867    1.0326183149   -0.6592205600
     N     1.8623960141    0.0627425984    0.0041952654
     C     2.5391127211   -0.6319891862    0.9518039253
     C     3.8663495544   -0.3983509243    1.2550561609
     S     6.2508073732    0.8844391909    0.9741811336
     H     4.3396085343    2.1249643613   -0.9852856455
     H     1.9757674877    1.5923045555   -1.4030787021
     H     1.9807467239   -1.3944838545    1.4873326629
     H     4.3489714978   -0.9874000818    2.0279323794
     H     6.4664101054    1.8943406939    0.1066948793
     C    -0.9900201918   -3.7083578213   -3.7539072688
     C     0.3203868925   -3.3475234723   -3.3901361394
     C     0.5107953773   -2.3758748166   -2.4246370581
     N    -0.5085865432   -1.7429073449   -1.8003672704
     C    -1.7710932821   -2.0897883936   -2.1503169407
     C    -2.0508447550   -3.0492364188   -3.1042974554
     S    -1.3781566233   -4.9228092903   -4.9607782685
     H     1.1845349392   -3.8148747967   -3.8502348635
     H     1.5145950614   -2.0835533452   -2.1300963397
     H    -2.5752923414   -1.5705533066   -1.6380344481
     H    -3.0841042543   -3.2818330767   -3.3396667476
     H    -0.1082162226   -5.2483226178   -5.2773392873
     I    -1.7773055504    1.9749377155   -0.6232997844
     I    -1.7800622985   -0.5498868433    1.9126947164
