11
-1.3129789988852444e+03 frame 50   xyz file generated by TeraChem
    Co     0.2044451863   -0.2380437245   -0.2328638974
     S     2.6382514978   -0.6219360584    0.1814513851
     C     3.5001301580    0.7736848817    0.5766261652
     N     4.1720881784    1.6922255094    0.8674095976
     S    -0.1121400523   -1.3534014424   -2.4503984495
     C    -1.3907846856   -2.4530876450   -2.4965779627
     N    -2.2655745658   -3.2273079481   -2.6198943043
     C     0.0725641998    1.7782870135   -0.4468088150
     N    -0.1032571209    2.9298626818   -0.5691990522
     C    -0.9199602309   -1.3860282790    1.0089115492
     N    -1.5555605868   -1.9811414484    1.7924228562
