49
-1.2227134924301495e+03 frame 95   xyz file generated by TeraChem
    Co    -0.1139946774    0.0229034463   -0.1130636012
     O    -0.6842588568   -1.2746256038   -1.5370902307
     C    -1.4243746074   -2.2061716499   -0.9989172665
     C    -1.7498797205   -2.0929115780    0.4162881378
     C    -2.5747462870   -3.0673521100    1.0100135103
     C    -3.0824154413   -4.1553299425    0.2885624883
     C    -3.9572472082   -5.2010039571    1.0053469024
     C    -3.1374240812   -5.8787185480    2.1298029850
     C    -5.1943018434   -4.5126082604    1.6299347811
     C    -4.4600131406   -6.3045705343    0.0545840139
     C    -2.7493261658   -4.2536751672   -1.0824924401
     C    -1.9427775433   -3.3080400200   -1.7102083655
     O    -1.2569211338   -1.0723425255    1.0749377002
     H    -2.7931182518   -2.9404396968    2.0678661228
     H    -2.2545835657   -6.3793000473    1.7156872938
     H    -3.7433902540   -6.6294049433    2.6563437373
     H    -2.7893186679   -5.1463239047    2.8647711101
     H    -5.8059452807   -4.0368507958    0.8544551957
     H    -4.9005887904   -3.7360420918    2.3425678623
     H    -5.8203321013   -5.2428287714    2.1615653506
     H    -5.0769664706   -5.8929059219   -0.7526067619
     H    -5.0733684884   -7.0255029890    0.6098974063
     H    -3.6297328269   -6.8564370965   -0.4005355383
     H    -3.1248768186   -5.0817121551   -1.6751738680
     H    -1.6977614165   -3.3970976230   -2.7660310197
     O     1.8669275796    0.1907504091    0.2408783680
     C     2.2709842956    1.4097527663    0.0268827020
     C     1.2662177297    2.3950069832   -0.3446349793
     C     1.6548502636    3.7328056745   -0.5493251770
     C     2.9877811123    4.1431607427   -0.4260871456
     C     3.3539486597    5.6160535621   -0.6910625719
     C     3.0140404461    5.9764581619   -2.1568985213
     C     2.5471893811    6.5365248825    0.2556600769
     C     4.8506238539    5.9065886908   -0.4638893398
     C     3.9538204404    3.1697180822   -0.0749165467
     C     3.6098261449    1.8389397188    0.1452480992
     O     0.0346414332    1.9735005198   -0.4610474915
     H     0.8698459534    4.4343991139   -0.8209004482
     H     3.5910358116    5.3548588194   -2.8514535977
     H     3.2463474513    7.0302981868   -2.3653190357
     H     1.9531784221    5.8128602878   -2.3706227316
     H     2.7825722149    6.3160347868    1.3033919700
     H     1.4689654280    6.4031591713    0.1241735768
     H     2.7830529747    7.5928705920    0.0657178018
     H     5.1512796031    5.6877234062    0.5670438360
     H     5.0578437961    6.9669702694   -0.6558868464
     H     5.4858167644    5.3170275840   -1.1347258526
     H     4.9961890927    3.4534514542    0.0308839070
     H     4.3641907593    1.1042640634    0.4166022306
