23
-4.2192015607063973e+02 frame 46   xyz file generated by TeraChem
    Fe    -0.2297360527   -0.0253457236   -0.0740530844
     C     2.4590807477   -1.2995545955    0.5904130807
     N     1.7205328165    0.0133744679    0.6868882164
     H     2.2908967708    0.7370254712    0.2352602960
     H     1.6820913410    0.2864327053    1.6750520727
     H     2.6000967050   -1.5577354912   -0.4609490294
     H     1.8847724671   -2.0783685300    1.0957670698
     H     3.4394298695   -1.2134808865    1.0660405032
     C    -1.6172136195   -1.2243838865   -2.5177683529
     N    -0.4113364141   -1.4199686846   -1.6340586167
     H     0.4292495785   -1.4304922499   -2.2214220499
     H    -0.4583586746   -2.3571971829   -1.2201978801
     H    -1.5356860180   -0.2618692728   -3.0258972645
     H    -2.5175356864   -1.2516311248   -1.9016692973
     H    -1.6686414868   -2.0191562597   -3.2661188681
     C    -0.6597194990    2.9520715138    0.4182878234
     N    -1.0133229130    1.8534093229   -0.5543167615
     H    -0.7210197006    2.1476306307   -1.4929722534
     H    -2.0352315302    1.7797543104   -0.6087259139
     H     0.4241330530    3.0829821722    0.4303174724
     H    -1.0156347427    2.6853243400    1.4147467986
     H    -1.1257413265    3.8911170640    0.1088060502
     I    -1.6745540548   -0.8874468229    1.8186429134
