13
-2.1337123428766749e+03 frame 60   xyz file generated by TeraChem
    Ni     0.1088947585    0.1500452741   -0.0019191442
     N     2.0776523208   -0.1667527986    0.2808645925
     C     3.2398246590   -0.3127540980    0.4393769378
     S     4.8558196906   -0.4980185429    0.6583333621
     N    -0.3781839684   -0.9249026526   -1.5957564150
     C    -0.6688349584   -1.5623146705   -2.5446715636
     S    -1.0682041382   -2.4453037079   -3.8731008232
     N    -0.8073119760    1.9193852488   -0.2657777301
     C    -1.3088960557    2.9787244910   -0.4181198978
     S    -1.9898181130    4.4572242308   -0.6277390259
     N    -0.7618737016   -0.6552569532    1.5848294625
     C    -1.2871144505   -1.1372107244    2.5246146537
     S    -2.0139693906   -1.8018955058    3.8415103927
