24
-7.1419554757448816e+02 frame 50   xyz file generated by TeraChem
    Fe    -0.2665989020   -0.1390009796   -0.0500762377
     C     2.7658364092    0.1733593023   -0.8814184066
     O     1.6783994632    0.1764805806   -0.2922400134
     H     3.6082517776    0.7415322692   -0.4664508761
     H     2.9070610482   -0.3893919819   -1.8135557411
     C    -1.2814092001   -2.2523299134   -2.1719844181
     O    -1.0997010931   -1.5031264110   -1.2048569754
     H    -2.2612784246   -2.7261872228   -2.3136975146
     H    -0.4769082811   -2.4550242080   -2.8910998386
     C    -1.6172144358    2.6394523502   -0.8331085913
     O    -1.1467993151    1.6101556337   -0.3370190811
     H    -2.1413131041    3.3634884124   -0.1958870401
     H    -1.5163370522    2.8417331704   -1.9077122628
     C    -0.8566388641   -1.1411677568    4.9115569848
     C    -1.8134559002   -1.5384826350    3.9783907184
     C    -1.6261792138   -1.2251594393    2.5758021961
     N    -0.5543428105   -0.5546446561    2.1007821703
     C     0.3671838065   -0.1716295305    3.0103340651
     C     0.2501590299   -0.4443212533    4.4285739167
     H    -0.9710789218   -1.3612582130    5.9706330058
     H    -2.7124384962   -2.0786215665    4.2705633308
     H    -2.3821933982   -1.5398460358    1.8595013722
     H     1.2370158202    0.3684067466    2.6430059332
     H     1.0390937555   -0.0891662994    5.0893555482
