37
-1.0058961828199323e+03 frame 131   xyz file generated by TeraChem
    Cr    -0.0282581853   -0.0346063889    0.0099496899
     O     1.9717904509    0.1333536484    0.3764398113
     C     2.6565679017    1.3359336300    0.6762915794
     C     3.9753269925    1.0798140548    0.7573472128
     C     4.1691286837   -0.3275934431    0.4974978810
     C     2.9610627577   -0.8763209742    0.2738954729
     H     2.0428847945    2.2162181174    0.7896080703
     H     4.7463523481    1.8046020987    0.9816848692
     H     2.5935429295   -1.8676688014    0.0605559807
     H     5.1129483907   -0.8560803584    0.4851682483
     O    -2.0041235820   -0.3481419919   -0.4359552551
     C    -2.6871099076   -0.1221285042   -1.6545034970
     C    -4.0123956355   -0.1167013466   -1.4198378576
     C    -4.2120973273   -0.3345254452   -0.0060797785
     C    -3.0005868602   -0.4711469014    0.5648984198
     H    -2.0610127332   -0.0108725110   -2.5257078013
     H    -4.7840362124    0.0163995805   -2.1662152788
     H    -2.6463274479   -0.6834849454    1.5616400371
     H    -5.1620202013   -0.3918620124    0.5084049701
     O    -0.0671671625    1.6955256303   -1.0859510368
     C    -0.8902255445    2.8087408103   -0.7892137752
     C    -0.5048430337    3.8515033351   -1.5482755086
     C     0.6014207766    3.4153310477   -2.3682029417
     C     0.8503731884    2.1254864779   -2.0732940372
     H    -1.6734037438    2.6336533477   -0.0674278345
     H    -0.9553212016    4.8350156880   -1.5453040225
     H     1.5579218049    1.3850473034   -2.4129334849
     H     1.1347097447    4.0095829593   -3.0981181894
     O    -0.1140549105   -1.7535393862    1.1388813622
     C     0.5099776318   -1.9879622629    2.3872721001
     C     0.4933985303   -3.3090118574    2.6451130951
     C    -0.1490382416   -3.9679130906    1.5317909746
     C    -0.5056176588   -3.0222687336    0.6426837644
     H     0.8610721185   -1.1099195381    2.9066941046
     H     0.8838027956   -3.7829536661    3.5357526028
     H    -1.0284873330   -3.0171545726   -0.3007092254
     H    -0.3272122536   -5.0299003810    1.4280313870
