17
-1.7140675555217192e+03 frame 33   xyz file generated by TeraChem
    Co     0.5970857416   -0.3106456909   -0.4983130004
     S     2.7456166612   -0.7545984547   -0.2356335850
     C     3.6706426735    0.5887916973    0.2014299721
     N     4.3218573327    1.5105984013    0.5061467866
     S    -0.8391985850   -0.9532662507   -2.0585218476
     C    -2.1610755935   -1.6125813707   -1.2399835315
     N    -3.0302512014   -2.0675879446   -0.6013575777
     S     0.8646789608    1.8794149354   -0.2016026076
     C    -0.7765192453    2.2567774993   -0.0235696875
     N    -1.9115672197    2.4687770302    0.1706430685
     C     0.0799351308   -0.6728929130    2.3213898567
     N    -0.5861347720   -0.6394102143    0.9894748122
     H    -1.2970718521    0.1011427054    0.9692974452
     H    -1.1108846007   -1.5069648451    0.8349757684
     H     0.6195149741    0.2618707294    2.4711204406
     H     0.7843530187   -1.5045825765    2.3454522635
     H    -0.6717495744   -0.8003185717    3.1070159874
