11
-1.2729347052133812e+03 frame 65   xyz file generated by TeraChem
    Fe     0.2868276988   -0.0565274485   -0.7446142844
     C     2.8386120217    0.5281031471    0.5216830583
     O     2.2660842944    0.4097310029   -0.5538005269
     H     2.3214660880    0.3506612466    1.4738881349
     H     3.9006947096    0.8105024840    0.5373877163
     C    -1.0125348396   -2.3387345289   -2.1157716661
     O    -0.3728206746   -1.3076480075   -2.2748517791
     H    -1.2716342759   -2.7017748430   -1.1119337527
     H    -1.3273592196   -2.9181341621   -2.9960411485
    Cl    -0.6950995222    1.9154587527   -1.0874913097
    Cl     0.2835858848   -1.6452625939    0.8810188084
