35
-8.9528949017195168e+02 frame 58   xyz file generated by TeraChem
    Co     0.0737699444   -0.2898151474   -0.3054876570
     C     2.0957012602   -0.0878587568   -0.1629891561
     N     3.2422250440    0.0480687581   -0.0487166690
     C     5.2301383741   -0.9130282627    1.0186134834
     C     5.2826109739   -0.7424432271    2.4068056313
     C     5.7946144477   -1.7574126655    3.2148126260
     C     6.2544357740   -2.9436476699    2.6386208182
     C     6.2052423506   -3.1149752011    1.2534632586
     C     5.6934644464   -2.1016911027    0.4431831776
     H     4.9336833440    0.1846093122    2.8557145988
     H     5.8416630962   -1.6188167307    4.2906671610
     H     6.5725734795   -4.0324595529    0.8036510669
     H     5.6656112258   -2.2321957683   -0.6362041322
     H     6.6581363166   -3.7309665185    3.2682383782
     C     4.6706869382    0.1867869685    0.1404887182
     H     5.1166650686    0.1812477892   -0.8588139067
     H     4.8255244494    1.1785418880    0.5766162054
     C    -0.5217047107   -1.5903783616   -1.7520476190
     N    -0.8985206208   -2.3275478191   -2.5648151612
     C    -2.8757859098   -2.8944293019   -3.8976467290
     C    -3.9105190210   -3.5334459294   -3.2052165256
     C    -5.2391414172   -3.2291117300   -3.5015126655
     C    -5.5362228830   -2.2857272547   -4.4874469314
     C    -4.5049471355   -1.6478441798   -5.1806543264
     C    -3.1757193422   -1.9509607605   -4.8872455293
     H    -3.6799285620   -4.2738002023   -2.4427822893
     H    -6.0399388261   -3.7322968246   -2.9682094284
     H    -4.7351211469   -0.9212972074   -5.9540015996
     H    -2.3737955498   -1.4609768192   -5.4346479264
     H    -6.5709737201   -2.0529336493   -4.7205686900
     C    -1.4329581400   -3.2197309198   -3.5723891854
     H    -0.7815727023   -3.1212074050   -4.4463308370
     H    -1.3210647097   -4.2331354775   -3.1751346618
     I    -0.9210637297    2.0733844686   -0.7873017278
     I    -0.7956965692   -1.1897406003    1.9841058873
