17
-1.4576847685233383e+03 frame 72   xyz file generated by TeraChem
    Cr     0.1374711501    0.0754347136    0.0745410618
     P     2.6667438013   -0.3688188586   -0.3645135399
     H     3.4445859838    0.4517699790    0.4793906349
     H     3.1018810119   -1.6839811473   -0.1065988916
     H     3.1068273555   -0.0791401493   -1.6714531323
     P    -0.5847703749   -1.6441444245   -1.6492061500
     H    -0.1314794355   -1.3630069578   -2.9534962564
     H    -0.1450779480   -2.9512560282   -1.3595831509
     H    -1.9896907804   -1.7197028573   -1.7362950751
     P    -1.0302623770    2.3328811738   -0.2981678966
     H    -0.6663596367    2.8601867107   -1.5550683284
     H    -2.4381696123    2.2956494081   -0.2917048103
     H    -0.6633680606    3.3127418526    0.6462629194
     P    -1.0326831804   -0.3022238863    2.3291780826
     H    -0.6486367134    0.6268647872    3.3171540841
     H    -2.4403996609   -0.2737146290    2.2960684460
     H    -0.6868943931   -1.5695909503    2.8434170211
