13
-8.1754322701138074e+02 frame 34   xyz file generated by TeraChem
    Co    -0.0094737732    0.0006364314   -0.0079127058
     O     1.9190740101    0.1953447453   -0.3980735826
     N     3.5984737703    1.8464275066    0.2209473032
     C     2.7601829025    1.0629889842   -0.0592646728
     O    -0.6786228342   -1.6614866545   -0.8436992705
     N    -0.6836410724   -2.5497026371   -3.1109716554
     C    -0.6665928959   -2.0903745167   -2.0229460517
     O    -0.8461724021    1.6593643958   -0.6836035591
     N    -3.1142246238    2.5454536100   -0.6997721934
     C    -2.0258220969    2.0872519772   -0.6773727223
     O    -0.4015570701   -0.1914852599    1.9207518336
     N     0.2131525880   -1.8443006349    3.6000881307
     C    -0.0650609327   -1.0601985669    2.7617778575
