53
-1.3833461062421104e+03 frame 701   xyz file generated by TeraChem
    Cr    -0.0109198981   -0.0620701186    0.0634740705
     C     1.6892929062    0.8540755677    0.9557689657
     N     2.6177424415    1.3766671767    1.4324116076
     C     3.7158799563    1.9933467644    2.0048531126
     C     3.5025020360    3.0158517556    2.9545288624
     C     4.6089783811    3.6268807442    3.5228363923
     C     5.9061195329    3.2247373532    3.1506548156
     C     6.1004894407    2.2027179012    2.2017120709
     C     5.0088491726    1.5774076687    1.6201597373
     H     2.4937836963    3.3087966367    3.2253897856
     H     4.4745121609    4.4162318562    4.2549889190
     H     7.1059387841    1.9032321701    1.9249133147
     H     5.1339484438    0.7871335190    0.8877265665
     H     6.7672862341    3.7087470657    3.6012655198
     C    -1.7179217000   -0.9300186976   -0.8613603925
     N    -2.6545202336   -1.3856721496   -1.3882107049
     C    -3.7619380028   -1.9297672977   -2.0134477412
     C    -5.0218065871   -1.8194597685   -1.3864023460
     C    -6.1240303173   -2.3655447967   -2.0248775893
     C    -5.9723677647   -3.0118934883   -3.2668530590
     C    -4.7076548572   -3.1141906384   -3.8773332247
     C    -3.5915741370   -2.5748360194   -3.2578183284
     H    -5.1150251831   -1.3154427481   -0.4303600199
     H    -7.1049466209   -2.2939884438   -1.5667532391
     H    -4.6054969602   -3.6160887815   -4.8338388073
     H    -2.6070369495   -2.6426289111   -3.7080236186
     H    -6.8415885273   -3.4367852742   -3.7596086275
     C    -0.0072562090    1.4580181978   -1.4336551999
     N    -0.0049104880    2.2930280710   -2.2493500194
     C    -0.0012303807    3.2831063357   -3.2155659803
     C    -1.0420174037    4.2370858908   -3.2174646035
     C    -1.0263070097    5.2255242542   -4.1886051607
     C     0.0078342431    5.2605606175   -5.1439409504
     C     1.0374227597    4.2997871094   -5.1283146804
     C     1.0439634599    3.3041672630   -4.1645222751
     H    -1.8273000769    4.1910162070   -2.4706601616
     H    -1.8121594975    5.9731937138   -4.2119800966
     H     1.8269676474    4.3383104518   -5.8714572288
     H     1.8255888202    2.5527730254   -4.1334822510
     H     0.0114753683    6.0379215710   -5.9019074336
     C    -0.0084697416   -1.5777430925    1.5509523744
     N    -0.0003743124   -2.4152780798    2.3642975266
     C     0.0121030324   -3.4075714361    3.3271476748
     C    -0.6674780961   -4.6175416876    3.0686771685
     C    -0.6460488749   -5.6060567975    4.0395231983
     C     0.0396511145   -5.3908092849    5.2503802521
     C     0.7114200959   -4.1773898200    5.4933200349
     C     0.7052077806   -3.1765635592    4.5350214105
     H    -1.1865521837   -4.7619178600    2.1274467917
     H    -1.1571109018   -6.5471485492    3.8655577456
     H     1.2339102749   -4.0251861244    6.4318813806
     H     1.2136896697   -2.2330760073    4.7007972378
     H     0.0506710644   -6.1703453176    6.0060779445
