9
-2.0066214093100664e+03 frame 27   xyz file generated by TeraChem
    Mn    -0.2008700530   -0.1097705117   -0.1517020981
     N     1.8021326415    0.1889622444    0.1653186404
     C     2.9463953731    0.3886206140    0.3796673375
     S     4.5445326894    0.6698017848    0.6749799101
     N    -0.2756236232   -1.5147987349   -1.6485417603
     C    -0.3903353491   -2.3046188121   -2.5196508664
     S    -0.5498226778   -3.4037090981   -3.7383024707
    Cl    -1.2822907415    1.9825997331   -0.5294848435
    Cl    -1.1870990485   -1.1073724472    1.7698674448
