8
-1.6187522952442148e+03 frame 39   xyz file generated by TeraChem
    Fe     0.2483856855   -0.2649475078    0.7048033066
     C     2.6871999412    0.2666197520   -0.6366173072
     O     2.2800080655    0.0223413266    0.4894811790
     H     3.7641709364    0.4432585026   -0.7951384572
     H     2.0115424144    0.3162483128   -1.4982652037
    Cl     0.1931775084   -1.9557878814   -0.9033311898
    Cl    -0.2140419438    1.8112659470   -0.2859682695
    Cl    -0.1458537145   -0.6385133499    2.9245295768
