19
-1.8072569667835053e+03 frame 61   xyz file generated by TeraChem
    Mn     0.0694873831   -0.0185738122   -0.4799622286
     N     1.9776101534   -0.3384215913   -0.1410793101
     C     3.1308145728   -0.5500510248    0.0605169813
     S     4.6989205842   -0.8486892644    0.3517904789
     N    -1.4285039673   -1.0516604185   -1.2273574069
     C    -2.3557229417   -1.7013405236   -1.5909562444
     S    -3.6235616805   -2.5965264012   -2.0688498325
     N    -0.2351464374    1.8817469104   -0.7558930623
     C    -0.4296272628    3.0486598581   -0.8746878349
     S    -0.6954048440    4.6415750416   -1.0375504318
     O    -0.5397119756   -0.6458980205    1.6504394225
     C    -1.7822860939   -1.0461147956    2.0877374167
     C    -1.7563951262   -1.2096159249    3.4336558753
     C    -0.4194882690   -0.8952693314    3.8648769007
     C     0.2800950424   -0.5610669478    2.7524583694
     H    -2.5221263368   -1.1596449731    1.3120183648
     H    -2.5870361660   -1.5209480640    4.0516907997
     H     1.2954548626   -0.2682108058    2.5392822699
     H    -0.0345117291   -0.9215527387    4.8747513912
