25
-4.8455900864198952e+02 frame 42   xyz file generated by TeraChem
    Mn     0.0603667380   -0.0783828911   -0.1105151775
     N    -0.9191436181   -1.2899167735   -1.6567316129
     N    -0.9026543184   -1.5288940537    1.2170961036
     C    -1.9445491274   -2.2415049977    0.3943977610
     C    -1.3807411326   -2.5583748048   -0.9868408944
     H    -2.1352053766   -3.0674899488   -1.5938863585
     H    -0.5143198007   -3.2235028956   -0.9096930454
     H    -2.8142267860   -1.5800941051    0.3193167950
     H    -2.2704023571   -3.1619087732    0.8880423720
     H    -1.7336771464   -0.8092724699   -2.0512944417
     H    -0.3476498475   -1.5297168760   -2.4714341385
     H    -0.2363331873   -2.2191211744    1.5786848840
     H    -1.3440573337   -1.1439598909    2.0569318603
     N     2.2486556613    0.1178056756    0.0134168354
     N     0.1393870584    2.0971197656   -0.1640711712
     C     1.5377160758    2.4867713124    0.2493540808
     C     2.5531133778    1.5400777082   -0.3806732217
     H     3.5664300089    1.8214856579   -0.0790976827
     H     2.5050778739    1.5934263470   -1.4733293480
     H     1.5808391942    2.4313584750    1.3419701449
     H     1.7547597417    3.5190879676   -0.0400293585
     H     2.6074173851   -0.0471672188    0.9596112282
     H     2.7936427074   -0.5163876985   -0.5771762150
     H    -0.0486080203    2.4766954580   -1.0982397958
     H    -0.5306935448    2.5830533578    0.4392550047
