49
-2.6718733556454918e+03 frame 64   xyz file generated by TeraChem
    Cr    -0.0196225512    0.0154088639   -0.0594076017
     C     3.8637068358   -2.4902442199    1.6914959594
     C     3.7641032774   -1.0915969437    1.8248676451
     C     2.6506885007   -0.4378217449    1.3280654204
     N     1.6353127311   -1.0706326909    0.6913762663
     C     1.7334508097   -2.4179831292    0.5606201443
     C     2.8006047554   -3.1510494715    1.0415268676
     S     5.2054067754   -3.4504483060    2.2776269933
     H     4.5407400222   -0.5136334373    2.3145745511
     H     2.5542374710    0.6368987188    1.4500493393
     H     0.9182053620   -2.9148887788    0.0440213132
     H     2.8093218392   -4.2281581635    0.9094851265
     H     5.9301527034   -2.4304220727    2.7811835187
     C     0.6060350835   -2.1028328249   -4.4814572771
     C     1.6865266219   -1.5483951621   -3.7682847650
     C     1.4638401165   -0.9779147771   -2.5281889519
     N     0.2403523416   -0.9027604025   -1.9472844393
     C    -0.8006299342   -1.4318898715   -2.6402546544
     C    -0.6653698706   -2.0335594916   -3.8757105817
     S     0.7382771711   -2.8640117967   -6.0522738780
     H     2.6946466537   -1.5616009318   -4.1689388058
     H     2.2945580362   -0.5670112853   -1.9634276095
     H    -1.7764622440   -1.3575320770   -2.1727451361
     H    -1.5419991412   -2.4433793782   -4.3667378534
     H     2.0677090417   -2.6953344361   -6.2055883481
     C    -3.9582788646    2.5049633784   -1.6866820186
     C    -2.7178839318    2.5747264332   -2.3505659828
     C    -1.6446414853    1.8488864800   -1.8660475603
     N    -1.7086365060    1.0692836516   -0.7590425463
     C    -2.9033364833    1.0051424849   -0.1181821483
     C    -4.0289186535    1.6838520858   -0.5420139897
     S    -5.4013300598    3.3609245239   -2.1859217278
     H    -2.5852459403    3.1824586887   -3.2394609214
     H    -0.6909019792    1.8795849043   -2.3846987756
     H    -2.9434336866    0.3859491913    0.7724647437
     H    -4.9542894690    1.5805649926    0.0153745389
     H    -4.8625627203    3.9830289887   -3.2545698657
     C    -0.7003477616    2.0544230982    4.3935933025
     C    -0.5603688559    0.6612506708    4.2426834223
     C    -0.3552702590    0.1306101734    2.9818683655
     N    -0.2962170096    0.8810663872    1.8549786154
     C    -0.4358365062    2.2233552270    2.0007925991
     C    -0.6262863522    2.8377075237    3.2232038498
     S    -0.9547653173    2.8672214380    5.9233604958
     H    -0.6056577194   -0.0076915194    5.0955814065
     H    -0.2251355422   -0.9393523075    2.8537101522
     H    -0.3975477281    2.8229065192    1.0962020944
     H    -0.7217531494    3.9177824364    3.2671115105
     H    -0.9702602514    1.7623144175    6.6968550737
