17
-5.8088738485826991e+02 frame 39   xyz file generated by TeraChem
    Fe     0.4221944722    0.5222618381   -0.1264625879
     C     2.9768028644   -1.0684927935   -0.3087372637
     O     2.1540751311   -0.2646377623    0.1364768460
     H     2.7169578718   -1.7745392130   -1.1084469243
     H     3.9914679285   -1.0739021624    0.1063705157
     C    -1.0619188246   -1.6042244134   -1.3610892211
     O    -0.3796403906   -0.5767813100   -1.4318096703
     H    -1.3191802182   -2.0531351524   -0.3938666358
     H    -1.4093604628   -2.0644393743   -2.2930143664
     C    -1.6740784556    2.4776387696   -0.8819126830
     O    -0.9084412108    1.9203270272   -0.0900566879
     H    -2.2032673882    3.3814147372   -0.5583856704
     H    -1.8365539375    2.0915028388   -1.8972894578
     C    -0.3640249962    0.0389319959    2.5800791743
     O    -0.3295715998   -0.3403520183    1.4045521978
     H     0.0746807875    0.9934633323    2.9003964640
     H    -0.8500816451   -0.6048541840    3.3220534740
