29
-8.5139544852115023e+02 frame 73   xyz file generated by TeraChem
    Co     0.2197297519    0.7239654425    0.2542750050
     C     2.1505164461   -0.1274846520    0.1623241260
     N     3.2121452730   -0.5878658016    0.0637898076
     C     5.0726110877   -2.2005337529    0.5796539462
     C     4.3510387427   -2.8923788190    1.5531573124
     C     4.9589124830   -3.9622530027    2.2024898273
     C     6.3169841837   -4.3576633135    1.8779761484
     C     7.0428998543   -3.6644745793    0.8991451121
     C     6.4386964879   -2.6019190493    0.2550856905
     H     3.3353250762   -2.6115409634    1.8091258971
     H     4.4221882552   -4.5193729360    2.9657711610
     H     8.0588012877   -3.9568895643    0.6523806448
     H     6.9837193346   -2.0499332393   -0.5077574743
     H     6.7599989864   -5.1990609701    2.4054995989
     C     4.5567600414   -1.0174370955   -0.2082367111
     H     4.6077978377   -1.2408351283   -1.2845950030
     H     5.2107832247   -0.1490192101   -0.0367886189
     C    -1.7816798335   -0.4616292938   -1.7754263214
     O    -0.9123855146   -0.4347387095   -0.9007041087
     H    -2.1536124800    0.4567572869   -2.2500586582
     H    -2.1940745899   -1.4291235089   -2.0886906540
     C     0.2228327898    3.7752663480   -0.3770632869
     O    -0.1287815214    2.6333814547   -0.0681960498
     H    -0.5259500847    4.5772100317   -0.4077811091
     H     1.2678801625    4.0089738346   -0.6212126552
     C    -1.3609139481    0.7797058391    2.8869953590
     O    -0.5639977486    0.3400106019    2.0549544519
     H    -1.8554690193    1.7525011960    2.7583856170
     H    -1.5820174312    0.1845774896    3.7820576923
