29
-1.6017901980216575e+03 frame 17   xyz file generated by TeraChem
    Fe    -0.2359883308   -0.2907128168   -0.3262839751
     S     1.9225180747   -0.6654660636   -0.6225733556
     C     2.4995800496    0.3486247324    0.6098898031
     N     2.8495575247    1.1229897076    1.4348007544
     S    -1.1148119242   -1.2774205308   -2.1280844351
     C    -0.8957688763   -2.8205093339   -1.4486711513
     N    -0.7593195482   -3.8678053476   -0.9123918956
     C    -1.7707741762    4.0825847564   -1.2366777878
     C    -0.3994550610    3.8323993529   -1.0766422295
     C     0.0344605498    2.5303617650   -0.8104092247
     N    -0.8473036001    1.4944779511   -0.7034393552
     C    -2.1840748069    1.7320371894   -0.8508858082
     C    -2.6729123780    3.0133660385   -1.1175189208
     H    -2.1305689869    5.0915208697   -1.4503032603
     H     0.3409298659    4.6302710478   -1.1582322788
     H     1.0910677979    2.2998239722   -0.6723577935
     H    -2.8531045144    0.8742246551   -0.7617954840
     H    -3.7487022415    3.1583201952   -1.2319637988
     C    -1.0348040062   -0.7844907067    4.3442171162
     C    -0.6362486404    0.4728937043    3.8623938212
     C    -0.4091522418    0.6365145462    2.4945915984
     N    -0.5609823488   -0.3918441313    1.6140442353
     C    -0.9403115569   -1.6203033854    2.0799795770
     C    -1.1893673336   -1.8439218430    3.4365166076
     H    -1.2154217096   -0.9374901962    5.4106684188
     H    -0.4938345356    1.3216303319    4.5336287996
     H    -0.0807280917    1.5887950238    2.0795752299
     H    -1.0319805547   -2.4265216072    1.3477452165
     H    -1.4888202683   -2.8406027943    3.7653276761
