16
-1.7293543180900713e+03 frame 198   xyz file generated by TeraChem
    Fe     0.1206435998    0.2854475278   -0.6619150432
     S     2.4042620895   -0.0085961609   -0.2072943756
     C     2.2286671360    0.2150681662    1.4609699720
     N     2.0746012140    0.3320536414    2.6155842093
     S    -0.2513122486   -0.7865516190   -2.6782255732
     C    -0.1240824696   -2.3218013601   -1.9732302924
     N    -0.0488408693   -3.3796891391   -1.4785802444
     S    -0.2589527926    2.5420372659   -1.0059883742
     C    -1.9409065752    2.3374641134   -0.9678235844
     N    -3.1019340427    2.1979770861   -0.9241634417
     C    -0.9284613908   -0.6802628095    2.1199419696
     N    -0.8465371847   -0.4244577538    0.9937383644
     C    -0.9844520843   -0.9815060841    3.5373507504
     H    -1.8277822823   -0.4592715078    3.9994644786
     H    -0.0423527210   -0.6393956837    3.9821374737
     H    -1.0935351014   -2.0602673088    3.6858224648
