33
-1.6249100805137537e+03 frame 137   xyz file generated by TeraChem
    Mn     0.2101598392    0.2455991005    0.0462011329
     C     3.2148966173   -0.5190069432    0.5387500178
     O     2.1030266907   -0.0153712394    0.3750202697
     H     3.3304709386   -1.6008777402    0.6873676947
     H     4.1057825454    0.1211956734    0.5381000841
     C     0.5646277981   -1.1462442583   -2.7905303537
     O     0.4034121943   -0.5592982318   -1.7204168053
     H     0.2959342373   -2.2057967067   -2.8892062506
     H     0.9777102786   -0.6149926431   -3.6580520457
     C    -3.6091678258    2.8874107544   -1.3381979221
     C    -2.3718385748    2.9291649522   -2.0185748399
     C    -1.3327406838    2.1307624159   -1.5681519292
     N    -1.4368443092    1.3175680763   -0.4841179091
     C    -2.6214937162    1.2879421634    0.1767487785
     C    -3.7201907152    2.0337889339   -0.2161938586
     S    -5.0168849565    3.8164037769   -1.7914436693
     H    -2.2133960685    3.5616378446   -2.8863024041
     H    -0.3807319054    2.1409888451   -2.0903758590
     H    -2.6826995162    0.6345405843    1.0386569043
     H    -4.6483239705    1.9500828876    0.3410634077
     H    -4.4809711106    4.4512420928   -2.8595323265
     C    -0.5346274214   -0.0694320435    4.8188344990
     C    -0.1114297611    1.1486745269    4.2426416007
     C     0.0453391936    1.2246397147    2.8671069990
     N    -0.1906326487    0.1754269675    2.0397371743
     C    -0.6006119506   -0.9963464148    2.5903778457
     C    -0.7846146713   -1.1603440304    3.9539964231
     S    -0.7662446002   -0.3260102222    6.5322682582
     H     0.1011549324    2.0257140662    4.8458589631
     H     0.3766434628    2.1507068724    2.4076352182
     H    -0.7846260687   -1.8297807516    1.9170346142
     H    -1.1111165869   -2.1235225828    4.3349549337
     H    -0.4271234877    0.9161605898    6.9476385617
