13
-2.0507108716662410e+03 frame 34   xyz file generated by TeraChem
    Cr    -0.0426999699    0.0132732428   -0.0753786135
     N     1.9235214280    0.3061273242   -0.4314706752
     C     3.0915609742    0.4497066870   -0.5469873793
     S     4.7141110684    0.6476060401   -0.7046242347
     N    -0.1021603831   -1.7459526867   -1.0744309639
     C    -0.1807016526   -2.7227439599   -1.7357411877
     S    -0.2924740544   -4.0761550834   -2.6597874579
     N    -0.3807743745    1.9855838832    0.2016717312
     C    -0.6199261344    3.1415467873    0.2674344340
     S    -0.9561516714    4.7471035828    0.3520811287
     N    -1.5022098068   -0.5346356106    1.2095550018
     C    -2.2846383471   -0.8711176471    2.0297587785
     S    -3.3694849001   -1.3393707547    3.1703482362
