29
-1.5486237383348755e+03 frame 95   xyz file generated by TeraChem
    Mn     0.5586777248    0.4670778983    0.0687960325
     C     5.1933991521   -1.5034861900   -0.4498165121
     C     4.7480631390   -0.5565075437   -1.3822233529
     C     3.4600682840   -0.0487031005   -1.2550186176
     N     2.6200031548   -0.4288041217   -0.2813030193
     C     3.0491538305   -1.3258029732    0.6243666052
     C     4.3187916587   -1.8883850475    0.5762783819
     S     6.8117688619   -2.2337628271   -0.4962195188
     H     5.3866827224   -0.2131327116   -2.1902264040
     H     3.0767968763    0.7030272894   -1.9404088944
     H     2.3265415248   -1.5527263841    1.4066411660
     H     4.6209175657   -2.6088518339    1.3301495540
     H     7.2547070536   -1.5736112664   -1.5857874529
     C    -2.6172136590   -2.2121138325   -2.7930719107
     C    -2.0636834673   -1.0184986940   -3.2763683465
     C    -1.1747129156   -0.3180481479   -2.4690594961
     N    -0.8187990280   -0.7397391924   -1.2460670921
     C    -1.3612505462   -1.8739219287   -0.7717424367
     C    -2.2567555035   -2.6403322608   -1.5071214058
     S    -3.7578722818   -3.2058173720   -3.7231609823
     H    -2.3179620490   -0.6333773131   -4.2589997036
     H    -0.7322379955    0.6251221402   -2.7804047506
     H    -1.0636273423   -2.1403753245    0.2400254628
     H    -2.6686026010   -3.5506082934   -1.0825154748
     H    -3.7945158228   -2.4214528235   -4.8196450187
     O     0.5973826832    2.0736893219   -0.9447419068
     H     0.5646039586    2.9486913480   -0.5393525174
     O     0.2953213778   -0.5018287203    1.7128850192
     H     0.0480934761   -0.0484103875    2.5288042033
