15
-1.7153314857967052e+03 frame 26   xyz file generated by TeraChem
    Cr     0.1553595958    0.2842865583    0.3274568275
     C     4.8591521699   -0.3241561381   -0.2743106911
     C     4.1215202915    0.4660260233   -1.1563495291
     C     2.7609333718    0.6306853492   -0.9345737287
     N     2.1352279261    0.0534314580    0.1134670940
     C     2.8459081905   -0.7066949890    0.9734521614
     C     4.2090010578   -0.9189534030    0.8060804023
     H     5.9241573524   -0.4719946987   -0.4262430309
     H     4.5860317032    0.9498173912   -2.0085594203
     H     2.1425837024    1.2348863017   -1.5887594609
     H     2.2925904781   -1.1288888719    1.8040031959
     H     4.7430398577   -1.5379727567    1.5186540452
    Cl    -0.4859152129   -1.1946006762   -1.1607530486
    Cl    -0.1706939236    2.4097046616   -0.0147942447
    Cl    -0.1835386676   -0.0578472329    2.4741012558
