50
-1.3141571548126462e+03 frame 183   xyz file generated by TeraChem
    Fe     0.0825409218    0.5539114372   -1.3610685494
     C     2.1462161777    0.2351070763   -1.6979784962
     N     3.2774087201   -0.0064214180   -1.8032130751
     C     5.5611292307    0.7918911316   -1.3536314252
     C     6.1106199380    1.7539554763   -2.1991909005
     C     6.9393321750    2.7621120407   -1.6747171850
     C     7.2158099425    2.8076747606   -0.3029675148
     C     6.6698979783    1.8471237836    0.5441443012
     C     5.8444078225    0.8382618452    0.0219108330
     H     5.9163382500    1.7228171537   -3.2681017289
     H     7.3722159477    3.5000472600   -2.3429535388
     H     6.8867152295    1.8649059082    1.6074901313
     H     5.4354066692    0.0830430874    0.6885987085
     H     7.8620078430    3.5838323642    0.0944115054
     C     4.6865296624   -0.3121331588   -1.9158673507
     H     4.8376172730   -1.2591553522   -1.3877239211
     H     4.8856302768   -0.4820177426   -2.9781640079
     C    -0.9408093269   -0.8019323437   -2.6610630877
     N    -1.6055525797   -1.6881994033   -3.0162922287
     C    -2.9320304629   -3.5272995094   -2.0613004945
     C    -2.6465996698   -3.1023299001   -0.7576762648
     C    -3.1479741210   -3.8298086395    0.3171592984
     C    -3.9368533337   -4.9850067763    0.1024477019
     C    -4.2226864713   -5.4090931921   -1.2020757871
     C    -3.7257775820   -4.6886565548   -2.2765401100
     H    -2.0441325136   -2.2189866553   -0.5679743639
     H    -2.9324790627   -3.5094491538    1.3315780762
     H    -4.8263569327   -6.2946494812   -1.3707881990
     H    -3.9412494298   -5.0111516924   -3.2921276050
     H    -4.3192603926   -5.5407179437    0.9529964392
     C    -2.4407457054   -2.8073316487   -3.3044222514
     H    -3.2898531106   -2.4455869804   -3.8993721926
     H    -1.8724185319   -3.4924263257   -3.9465354755
     C    -0.7512537447    2.4534339758   -1.8009595023
     N    -1.2539186527    3.4871902713   -1.9717748852
     C    -2.7869634012    5.2241800960   -1.0926065714
     C    -2.7048908089    4.7363461533    0.2166762597
     C    -3.5523495209    5.2463775465    1.1952885598
     C    -4.4867171429    6.2522055550    0.8734537144
     C    -4.5684513210    6.7421940810   -0.4361933500
     C    -3.7277994040    6.2310111182   -1.4152714996
     H    -1.9860024771    3.9654274676    0.4757003827
     H    -3.4916668970    4.8729133460    2.2125664388
     H    -5.2882795499    7.5142454202   -0.6873147240
     H    -3.7914822636    6.6055422532   -2.4336743180
     H    -5.1425420341    6.6450684117    1.6440899250
     C    -1.8618693797    4.7632234068   -2.2045061508
     H    -1.0423066626    5.4802575029   -2.3499292658
     H    -2.4013814857    4.6930805956   -3.1556740860
     F    -0.6244243503   -0.1844008450    0.0663670233
