46
-1.5139171045067174e+03 frame 47   xyz file generated by TeraChem
    Fe    -0.0268774199   -0.0570026672    0.0256255389
     C     4.7045294708    0.7915660931    0.4737513813
     C     3.8627135077    1.7645965777   -0.0734257239
     C     2.5007636232    1.5105065966   -0.1505133726
     N     1.9566102758    0.3453590747    0.2922307274
     C     2.7796015089   -0.5966265419    0.8305775086
     C     4.1490584713   -0.4086994785    0.9332322620
     H     5.7746084639    0.9647161494    0.5432549354
     H     4.2541901308    2.7088726572   -0.4373953134
     H     1.8152619617    2.2411032111   -0.5665641872
     H     2.3152580666   -1.5135677706    1.1842555820
     H     4.7687222510   -1.1869390877    1.3666234665
     C    -0.9455937628   -3.3403341339   -3.3815216943
     C     0.3190060641   -3.2737700366   -2.7879698802
     C     0.5495740053   -2.3271594368   -1.8008448546
     N    -0.4156168686   -1.4603676019   -1.3912394428
     C    -1.6440209673   -1.5251354685   -1.9755835383
     C    -1.9411229566   -2.4489297961   -2.9657612995
     H    -1.1513780726   -4.0713040923   -4.1582140094
     H     1.1182807279   -3.9437902174   -3.0873445017
     H     1.5212778251   -2.2422856021   -1.3249702338
     H    -2.3853217625   -0.8047147556   -1.6413326826
     H    -2.9325294838   -2.4650388061   -3.4065713445
     C    -2.1452305672    4.0500393751   -1.4107373710
     C    -1.4457480386    3.2412187601   -2.3129678517
     C    -0.8683299655    2.0673309625   -1.8527009541
     N    -0.9581349332    1.6749887330   -0.5518203168
     C    -1.6400472141    2.4646812195    0.3195072874
     C    -2.2417001741    3.6509143530   -0.0737743831
     H    -2.6076949856    4.9744299678   -1.7446360451
     H    -1.3495892352    3.5144185858   -3.3587161822
     H    -0.3226836985    1.4118458393   -2.5261189772
     H    -1.7000367773    2.1230688622    1.3475931913
     H    -2.7771502703    4.2502025049    0.6552438223
     C    -1.6306650755   -1.3929945400    4.4032862659
     C    -2.1535002553   -1.9879208148    3.2262012289
     C    -1.6708200044   -1.5851803786    1.9980906474
     N    -0.7067691590   -0.6298248688    1.8547558874
     C    -0.1962253811   -0.0611974538    2.9866592879
     C    -0.6221066069   -0.4028288712    4.2523990325
     S    -2.1310633903   -1.7908181841    6.0111600900
     H    -2.9224060714   -2.7529955236    3.2675500954
     H    -2.0539361290   -2.0329779593    1.0868067413
     H     0.5812011708    0.6843603456    2.8511744338
     H    -0.1793948231    0.0853421374    5.1156333065
     H    -3.0510285886   -2.7298900984    5.6907806513
