20
-5.2152119696411216e+02 frame 50   xyz file generated by TeraChem
    Fe     0.1270644016    0.4060952496    0.5621319710
     C     2.1812781394    0.0715717648    0.2347845233
     N     3.3119198241   -0.1183960205    0.0447608407
     C     5.2688869305    0.7173960707   -1.1688403640
     C     5.1447708797    0.5530305672   -2.5530324588
     C     5.6496219828    1.5215300730   -3.4199006622
     C     6.2822992020    2.6562913125   -2.9074471169
     C     6.4092319377    2.8222152894   -1.5272521117
     C     5.9025189575    1.8550806935   -0.6587598983
     H     4.6537025719   -0.3307738876   -2.9534838566
     H     5.5513910728    1.3887141342   -4.4933043909
     H     6.9025708858    3.7024215431   -1.1255620134
     H     6.0011048261    1.9854880556    0.4162602255
     H     6.6769581433    3.4093755647   -3.5834797164
     C     4.7091644147   -0.3291058280   -0.2254204311
     H     5.2236483306   -0.3156735184    0.7404155896
     H     4.7993323448   -1.3375644729   -0.6419806169
     I    -0.9417972558   -0.2518553564   -1.6978760620
     I    -0.0238997713    2.9173422232    1.1409129284
     I    -0.4688925835   -1.1628053805    2.5246464846
