22
-1.9370375330170721e+03 frame 16   xyz file generated by TeraChem
    Fe     0.2286630842    0.6850857147   -0.1655325585
     S     2.2301269838    1.6600709900   -0.5187694100
     C     2.9623233637    0.1803571403   -0.1366715074
     N     3.4185332416   -0.8551315167    0.1925172810
     S    -0.4545508330   -0.8417202547   -1.5922069011
     C    -0.6910642508   -2.2558186696   -0.6816559342
     N    -0.8723017118   -3.2347424724   -0.0569039600
     S    -0.7715511070    2.6589176773   -0.5181336789
     C    -2.3964910276    2.3176424314   -0.1908484843
     N    -3.5265428569    2.0896888684    0.0460752644
     C    -1.2199290652   -1.4450631396    3.8409734706
     C    -2.1863480249   -0.8563069389    3.0069587338
     C    -1.7766694981   -0.2231327300    1.8375767810
     N    -0.4718571468   -0.1432666307    1.4822043328
     C     0.4660812202   -0.7126267179    2.2842158061
     C     0.1333301176   -1.3692119750    3.4629067693
     C    -1.6040094384   -2.1088542123    5.0535695614
     H    -3.2433807208   -0.8937328166    3.2576811214
     H    -2.4995160610    0.2381208059    1.1704763847
     H     1.5032040090   -0.6517606519    1.9582396492
     H     0.9140720294   -1.8172722569    4.0721048682
     N    -1.9152422077   -2.6431361714    6.0447348661
