26
-1.9603742131245938e+03 frame 282   xyz file generated by TeraChem
    Fe     0.1750697953   -1.5282742094   -0.3245583029
     S     2.4226190479   -1.9719559139    0.0471849688
     C     3.0056336262   -0.4446743150    0.4750658769
     N     3.4454132159    0.5923293268    0.7893885501
     S    -0.4989825754   -3.1331128365   -1.8649935165
     C    -2.0302357551   -3.1326594241   -1.1407916762
     N    -3.0769128007   -3.1268455547   -0.6155377634
     S    -0.2028740582    0.5545322920   -1.2965536094
     C    -0.1397826730    1.3531990856    0.1938046786
     N    -0.1338870239    1.8817766565    1.2382680637
     C    -0.7279115072   -1.4842138692    1.5673393725
     N    -1.1829101374   -1.3096231064    2.6190512042
     C    -0.5459940497   -0.5832450756    4.8656711328
     C    -0.3048527179   -1.3609948665    6.0015448478
     C     0.7259995508   -1.0153966157    6.8773133988
     C     1.5213353391    0.0997002370    6.6115795646
     C     1.2839582187    0.8735385306    5.4722014199
     C     0.2495581258    0.5391926810    4.5997898605
     H    -0.9211396248   -2.2335666915    6.2049874107
     H     0.9085240294   -1.6200020912    7.7610025369
     H     1.9039765553    1.7392613576    5.2596662078
     H     0.0716424903    1.1400263098    3.7106072615
     H     2.3272842433    0.3656002768    7.2897128155
     C    -1.6762518192   -0.9498817880    3.9229771290
     H    -2.3630261179   -0.1117019772    3.7602974142
     H    -2.2576629422   -1.7988201574    4.2938281884
