13
-2.1094743454399427e+03 frame 64   xyz file generated by TeraChem
    Co     0.0001749537   -0.0003600147    0.0001996846
     N     1.6890240385   -0.8480002025    0.3492121528
     C     2.7262373591   -1.3664518651    0.5650739506
     S     4.1694232603   -2.0877184448    0.8648900456
     N     0.2592971993   -0.2836570325   -1.8820349819
     C     0.4147696317   -0.4542703899   -3.0365184851
     S     0.6332690983   -0.6931776357   -4.6519350203
     N    -1.6870392703    0.8501184694   -0.3485421351
     C    -2.7225532143    1.3717930436   -0.5648957364
     S    -4.1633331129    2.0976779042   -0.8648844532
     N    -0.2608911098    0.2806081679    1.8825897006
     C    -0.4192370675    0.4491241086    3.0369908577
     S    -0.6411628970    0.6852880307    4.6522831676
