29
-4.8696811858854443e+02 frame 56   xyz file generated by TeraChem
    Mn    -0.0240988458    0.0198328958    0.0866216298
     C     2.7271807530   -1.5043654830   -0.1087364883
     N     2.1722355649   -0.1159334362    0.0675047189
     H     2.5725598490    0.4726687890   -0.6690953861
     H     2.5698723600    0.2714595479    0.9286258716
     H     2.4194280116   -1.8951421373   -1.0809489628
     H     2.3409245120   -2.1507739645    0.6819280584
     H     3.8189550330   -1.5025168214   -0.0623707601
     C    -2.2150856934   -0.9562193459   -1.9810894468
     N    -0.8914224279   -1.3628048606   -1.3904432276
     H    -0.2403237984   -1.5253327373   -2.1642849788
     H    -1.0082138684   -2.2911967390   -0.9733990364
     H    -2.0939502477   -0.0122866805   -2.5162152983
     H    -2.9461920147   -0.8327161682   -1.1789462592
     H    -2.5827365747   -1.7107107482   -2.6806906235
     C    -0.9694177113    2.9798402457    0.6315412332
     N    -0.5291842113    2.0823549089   -0.4944421474
     H     0.2680449946    2.5337580871   -0.9527252267
     H    -1.2618931210    2.0961302741   -1.2096482624
     H    -0.1744658770    3.0368112241    1.3787733409
     H    -1.8739982436    2.5688629132    1.0851155927
     H    -1.1859911277    3.9886689223    0.2717591663
     C     0.1675704472   -1.1480366242    3.0507835479
     N    -0.7754052281   -0.4723311323    2.0901968643
     H    -1.1149451789    0.3814231742    2.5436825783
     H    -1.6158496711   -1.0543917602    2.0208020952
     H     1.0364950682   -0.5066129778    3.2093407295
     H     0.4909199474   -2.1027414412    2.6310918420
     H    -0.3172606576   -1.3299242861    4.0127596564
