38
-1.1558337567996455e+03 frame 21   xyz file generated by TeraChem
    Fe    -0.1217201810   -0.0246606615    0.1664301171
     C     4.5675229449    0.6193782890   -0.2893708587
     C     3.7248954986    0.9321089561   -1.3788128072
     C     2.3565481579    0.7324288195   -1.2549402656
     N     1.7987732417    0.2379751316   -0.1164400286
     C     2.6072722186   -0.0683228836    0.9382413283
     C     3.9851987622    0.1088155878    0.8892448683
     C     5.9809193540    0.8152551739   -0.3826033889
     H     4.1353542380    1.3263760457   -2.3059260664
     H     1.6816517066    0.9610740504   -2.0761344005
     H     2.1240514298   -0.4588227931    1.8325161493
     H     4.5956926710   -0.1466053452    1.7527264672
     N     7.1361506607    0.9752325609   -0.4626423215
     C    -1.3390405594   -3.4986218871   -2.7911699414
     C    -0.0135484002   -3.3776829267   -2.3241150228
     C     0.3203030795   -2.3104399599   -1.4997961268
     N    -0.5963395559   -1.3730458055   -1.1285068447
     C    -1.8829111121   -1.4904170901   -1.5657604845
     C    -2.2849121650   -2.5273272449   -2.3963719063
     C    -1.7173489805   -4.5814824720   -3.6441216885
     H     0.7458305270   -4.1059857997   -2.6005449458
     H     1.3312730434   -2.1918636944   -1.1203659619
     H    -2.5893134267   -0.7388513840   -1.2213661889
     H    -3.3207601092   -2.5883104349   -2.7232789256
     N    -2.0256881877   -5.4645344326   -4.3455628721
     C    -1.5427463622    4.2482600077   -1.2556111837
     C    -1.5183805457    3.1737594361   -2.1703970746
     C    -1.0971742018    1.9234563665   -1.7346103943
     N    -0.7078647158    1.7063494877   -0.4501022308
     C    -0.7211964691    2.7368984720    0.4394383125
     C    -1.1320017105    4.0129592107    0.0736059033
     C    -1.9720036289    5.5478900687   -1.6693761704
     H    -1.8270552598    3.3127607627   -3.2042387179
     H    -1.0714607245    1.0729748207   -2.4129832685
     H    -0.4038256958    2.5214196367    1.4577837496
     H    -1.1381454705    4.8112680044    0.8126617845
     N    -2.3201410844    6.6103630708   -2.0107658604
     I    -1.3989110332   -0.8042485616    2.1602388804
