137
-4.2487680059245531e+03 frame 113   xyz file generated by TeraChem
    Mn    -0.0076783849   -0.0588019956    0.1450553238
     C     2.8689034864   -2.7150497726    0.4104826123
     C     3.4583917214   -1.7386392037   -0.4030980269
     P     2.5189957364   -0.2277326167   -0.8789512738
     C     3.6362803326    1.1610462765   -0.4158611105
     C     3.4754884256    1.7640389023    0.8394252999
     C     4.3525679485    2.7602103076    1.2707493316
     C     5.4024747923    3.1680897640    0.4468503031
     C     5.5700576931    2.5766034920   -0.8074260010
     C     4.6957659433    1.5790601011   -1.2391681882
     C     2.5147898996   -0.2372328993   -2.7211677642
     C     2.4080827568    0.9721143279   -3.4292597880
     C     2.4201901282    0.9720777334   -4.8244276491
     C     2.5161090610   -0.2304156704   -5.5287861694
     C     2.5978174187   -1.4368734135   -4.8306757029
     C     2.6010205958   -1.4437621502   -3.4346666360
     C     4.7848829070   -1.9196678982   -0.8326377488
     C     5.4957619248   -3.0577077426   -0.4588602502
     C     4.8968967659   -4.0276008373    0.3512988332
     C     3.5835704342   -3.8553594687    0.7868398048
     H     1.8494698483   -2.5935923693    0.7637680883
     H     2.6628191969    1.4587465464    1.4894149342
     H     4.2105572614    3.2179720655    2.2455142227
     H     6.0871592340    3.9429796089    0.7787245889
     H     6.3856462484    2.8890710553   -1.4528902473
     H     4.8356606328    1.1401647431   -2.2214143092
     H     2.3458045250    1.9180518890   -2.9018220129
     H     2.3620619195    1.9163141306   -5.3576833323
     H     2.5352978947   -0.2270499050   -6.6147467272
     H     2.6732058146   -2.3767386636   -5.3691708750
     H     2.6866565597   -2.3892282472   -2.9108975067
     H     5.2652966515   -1.1739478992   -1.4575699765
     H     6.5195408035   -3.1868948524   -0.7971243027
     H     5.4564196772   -4.9117409779    0.6421591368
     H     3.1107938074   -4.5986576497    1.4216015762
     C    -1.1833484513    0.1851261060   -4.1826882976
     C    -2.0486464631   -0.0337614209   -3.0983954761
     P    -1.5956342551   -1.2046112909   -1.7532549562
     C    -3.2135210685   -1.8236955920   -1.1316636060
     C    -3.6073815384   -1.5579760195    0.1858868250
     C    -4.8418265086   -2.0031832286    0.6659608711
     C    -5.6932293857   -2.7216092013   -0.1725670569
     C    -5.3068904370   -2.9987242399   -1.4876691297
     C    -4.0756674690   -2.5560073563   -1.9664256751
     C    -0.8314312278   -2.6571161598   -2.5801634925
     C     0.0446843772   -3.4558603568   -1.8319489330
     C     0.5835887025   -4.6234465480   -2.3736109470
     C     0.2544433750   -5.0023697309   -3.6761481797
     C    -0.6146673421   -4.2112602945   -4.4316179938
     C    -1.1589683737   -3.0464879860   -3.8898743633
     C    -3.2507929680    0.6885953582   -3.0207151761
     C    -3.5919418073    1.5944802529   -4.0256985216
     C    -2.7409126997    1.7889241627   -5.1159037285
     C    -1.5361820720    1.0853458082   -5.1891343602
     H    -0.2485891925   -0.3594832392   -4.2593067317
     H    -2.9483179557   -1.0069924220    0.8493733433
     H    -5.1245892553   -1.7925653595    1.6927419524
     H    -6.6534103380   -3.0709354050    0.1953781355
     H    -5.9659757194   -3.5621320793   -2.1414040481
     H    -3.7902323747   -2.7830517460   -2.9885706465
     H     0.3085519967   -3.1711294448   -0.8185683461
     H     1.2616539936   -5.2295981057   -1.7800519065
     H     0.6723240704   -5.9099660805   -4.1016752138
     H    -0.8750901002   -4.5030435586   -5.4447824200
     H    -1.8280151885   -2.4414192819   -4.4927402302
     H    -3.9294744038    0.5385566022   -2.1878781195
     H    -4.5292862201    2.1385794444   -3.9588893162
     H    -3.0179459684    2.4803201426   -5.9064316334
     H    -0.8706639614    1.2283050959   -6.0354300163
     C    -3.3473458554    2.0802727002    0.4768764898
     C    -2.4028739431    2.9553233014   -0.0797503709
     P    -0.6181948048    2.5912307432    0.1871270458
     C     0.2702245578    3.5099636119   -1.1376289277
     C    -0.1900338901    3.4541234685   -2.4644325828
     C     0.4753273078    4.1587065905   -3.4683437996
     C     1.6185681227    4.9034042053   -3.1680412064
     C     2.0972349856    4.9384236104   -1.8568981479
     C     1.4267723500    4.2502459690   -0.8443348522
     C    -0.1896760761    3.4751947589    1.7428462789
     C     0.5049722806    2.8157252297    2.7659153061
     C     0.8410978084    3.4863268746    3.9451009333
     C     0.4808888446    4.8235164459    4.1105723178
     C    -0.2176397114    5.4886028960    3.0981106470
     C    -0.5535739659    4.8212744334    1.9221203960
     C    -2.8522725547    4.1043407605   -0.7515130893
     C    -4.2192719436    4.3592954849   -0.8682054804
     C    -5.1518002432    3.4787520014   -0.3151257702
     C    -4.7133889521    2.3393130383    0.3617602201
     H    -3.0205949800    1.1970018324    1.0159979699
     H    -1.0804742162    2.8886507646   -2.7167759679
     H     0.0924173754    4.1284480111   -4.4841463562
     H     2.1295301164    5.4581708035   -3.9496233336
     H     2.9848398290    5.5153006369   -1.6149067715
     H     1.7996611417    4.3052989590    0.1721924643
     H     0.7888973573    1.7732988273    2.6537891264
     H     1.3788480694    2.9614341624    4.7289948962
     H     0.7383958110    5.3477547286    5.0261185792
     H    -0.5027269526    6.5286163854    3.2260156331
     H    -1.0999994513    5.3495168288    1.1470594175
     H    -2.1429585065    4.7962427218   -1.1929567363
     H    -4.5547886608    5.2509735769   -1.3895772306
     H    -6.2144185997    3.6828284923   -0.4078181918
     H    -5.4310830846    1.6503559110    0.7974674706
     C     2.2908811959   -0.5992586896    3.4785617621
     C     0.9484204466   -0.7374449240    3.8690223129
     P    -0.3027640297   -1.2549538257    2.6214807541
     C    -0.1792539401   -3.0934864818    2.5646357599
     C    -0.9820917354   -3.8071725405    1.6567274476
     C    -0.9330378918   -5.2005423256    1.6143390236
     C    -0.0772936113   -5.8985450914    2.4700450268
     C     0.7240290024   -5.1970598790    3.3724866423
     C     0.6759244978   -3.8017879746    3.4237632465
     C    -1.9243044080   -0.9038593037    3.4287017500
     C    -2.7479044142   -1.9262992190    3.9245628224
     C    -3.9475513589   -1.6120784011    4.5687362940
     C    -4.3367575596   -0.2806940527    4.7249467529
     C    -3.5202063333    0.7427005156    4.2364392205
     C    -2.3226218687    0.4352973151    3.5912207409
     C     0.6046361721   -0.5429069193    5.2165280481
     C     1.5888158614   -0.2143503840    6.1507518048
     C     2.9210446394   -0.0784930815    5.7544357001
     C     3.2713493956   -0.2739166054    4.4161512993
     H     2.5820474577   -0.7706744657    2.4469176219
     H    -1.6715240927   -3.2840797127    1.0004220753
     H    -1.5654022572   -5.7388209213    0.9145220575
     H    -0.0413279377   -6.9834375251    2.4385236338
     H     1.3818490619   -5.7343033717    4.0494794733
     H     1.2969373662   -3.2747262632    4.1396050054
     H    -2.4564911702   -2.9654373192    3.8203697120
     H    -4.5702760028   -2.4120727861    4.9586152603
     H    -5.2666396469   -0.0407602703    5.2320064806
     H    -3.8106572325    1.7815720703    4.3625098047
     H    -1.6881944423    1.2463715306    3.2452492293
     H    -0.4237268447   -0.6535855662    5.5428769361
     H     1.3125481331   -0.0719448588    7.1913370640
     H     3.6838030271    0.1713822667    6.4859345967
     H     4.3061067130   -0.1766052312    4.1010458663
