13
-1.4221661791558085e+03 frame 48   xyz file generated by TeraChem
    Mn     0.6365932164    0.3431569283   -0.2802380905
     N     2.5525180212    0.1329958519   -0.0500190341
     C     3.7346870032    0.0883959223    0.1154659104
     S     5.3197787262    0.0159679772    0.3358162855
     N    -0.5864889737   -0.8962623823   -1.3216669778
     C    -1.4986997210   -1.5990223863   -1.0436196475
     S    -2.7143782422   -2.5320026468   -0.4888907086
     O    -0.0906351286    2.1127234097   -0.5425558654
     N    -2.2953404571    2.8805817576   -1.2352307174
     C    -1.2317006301    2.4889155991   -0.9010981607
     O    -0.1575579506   -0.4847680665    1.5473306833
     N    -2.2372562952   -1.6803760001    1.8943784741
     C    -1.2052223876   -1.0867267202    1.7312719456
