48
-2.3566449960266182e+03 frame 75   xyz file generated by TeraChem
    Ni    -0.1027716655   -0.1364876101    0.0249700704
     C     3.1433363296   -3.4620715206    0.9344879420
     C     3.2862588609   -2.1735621169    1.4517981917
     C     2.3090408767   -1.2246952891    1.1761125491
     N     1.2330616081   -1.5020066490    0.4068283432
     C     1.0998175782   -2.7470644553   -0.1020031659
     C     2.0265629732   -3.7515923500    0.1486603382
     H     3.8874471982   -4.2254918128    1.1398890987
     H     4.1378690488   -1.9019700225    2.0663447136
     H     2.3691394561   -0.2197914788    1.5781586203
     H     0.2329615648   -2.9250406754   -0.7284312897
     H     1.8724645834   -4.7389073290   -0.2733617463
     C     0.5856853467   -0.7516194305   -4.6468161074
     C     1.6418640718   -0.3787788800   -3.7924810805
     C     1.4043961882   -0.2238860965   -2.4383228158
     N     0.1841488181   -0.3995850946   -1.8793187145
     C    -0.8391798893   -0.7465489961   -2.6975700923
     C    -0.6814174176   -0.9383354691   -4.0561377466
     S     0.7432198635   -0.9943866551   -6.3732931640
     H     2.6453828361   -0.2143906972   -4.1705078541
     H     2.2137955852    0.0426331480   -1.7671546499
     H    -1.8106566457   -0.8629662931   -2.2306689643
     H    -1.5408026869   -1.2249814427   -4.6535939674
     H     2.0587494587   -0.7093777825   -6.4584881056
     C    -3.3247425036    3.2436754813   -0.8912647484
     C    -2.0176474432    3.3176388802   -1.4107954957
     C    -1.1133910219    2.3079970886   -1.1341807269
     N    -1.4161752194    1.2390004056   -0.3613984184
     C    -2.6698839862    1.1649379060    0.1486554798
     C    -3.6358930159    2.1211584180   -0.0959803996
     S    -4.5722355072    4.4404545731   -1.1658841117
     H    -1.7006707018    4.1493072215   -2.0310818360
     H    -0.1104730243    2.3395153053   -1.5444892602
     H    -2.8883456877    0.3093806903    0.7777123863
     H    -4.6238115437    1.9980327408    0.3358521861
     H    -3.8344310739    5.2743223844   -1.9270948882
     C    -0.7430761605    0.5346002380    4.6950595695
     C    -0.9503314896   -0.7254001209    4.1002427885
     C    -0.7505327758   -0.8811358640    2.7405174984
     N    -0.3768302324    0.1355826516    1.9288771522
     C    -0.1826669620    1.3528058914    2.4931151153
     C    -0.3429703997    1.5866701449    3.8450265270
     S    -0.9474363086    0.8734792204    6.4000510760
     H    -1.2589095141   -1.5847009206    4.6862150214
     H    -0.8852885810   -1.8490465014    2.2706950074
     H     0.1012622064    2.1584398250    1.8251033326
     H    -0.1643317916    2.5835643027    4.2347150226
     H    -1.3222169697   -0.3683209360    6.7696631178
