65
-1.5405501332380682e+03 frame 241   xyz file generated by TeraChem
    Cr    -0.4231627853    0.1439930183    0.6156086788
     C     1.4179889634    0.5292153652   -0.3368216340
     N     2.4219261626    0.7828782705   -0.8619358064
     C     4.7094064282    0.0440106897   -1.4856424574
     C     5.5607190135   -0.0872274637   -0.3801365400
     C     6.5704442290   -1.0675008612   -0.3737176584
     C     6.7344087790   -1.9116339162   -1.4718537352
     C     5.8915018019   -1.7803928212   -2.5773816071
     C     4.8774131179   -0.8026259231   -2.5847671351
     H     5.4631052306    0.5822567956    0.4709995878
     H     7.2313174082   -1.1488115202    0.4835115425
     H     6.0241093814   -2.4187392358   -3.4453527731
     H     4.2472019202   -0.6948937896   -3.4640388534
     H     7.5239275440   -2.6562477290   -1.4745026412
     C     3.6661427220    1.1432965217   -1.5226337500
     H     3.3941423682    1.4068702897   -2.5495466143
     H     4.0167919597    2.0519449042   -1.0224464259
     C    -0.1719964795   -1.9290409143    0.2497899934
     N    -0.0149629606   -3.0600340847    0.0407322108
     C    -0.8247261964   -5.0580962381   -1.1751597423
     C    -1.9066801572   -5.7884005150   -0.6755300194
     C    -2.8322907202   -6.3767982732   -1.5587446141
     C    -2.6775314530   -6.2323870622   -2.9385709209
     C    -1.5973511800   -5.5062771909   -3.4407181614
     C    -0.6686846604   -4.9217931510   -2.5606649996
     H    -2.0268101957   -5.9296586078    0.3955967079
     H    -3.6585089548   -6.9564042451   -1.1590940074
     H    -1.4583033262   -5.4025723864   -4.5122002843
     H     0.1827690288   -4.3813403745   -2.9671102023
     H    -3.3861929897   -6.6952476370   -3.6177526154
     C     0.2035688547   -4.4727572894   -0.2268226126
     H     1.2195245515   -4.5479507419   -0.6275971005
     H     0.1873485772   -4.9705619837    0.7475935830
     C    -0.7318714480    2.2282721382    0.8953156169
     N    -0.9623827927    3.3586209394    1.0262481089
     C    -0.1056603978    5.6612159732    1.4058400839
     C     0.4412749179    5.8164589468    2.6870559366
     C     1.5134950771    6.7034469126    2.9000524307
     C     2.0342061161    7.4410269771    1.8372155680
     C     1.4882003539    7.2936950013    0.5603529850
     C     0.4181933508    6.4019847211    0.3431940317
     H     0.0261597460    5.2719365029    3.5317343964
     H     1.9177725373    6.8227685338    3.9003251528
     H     1.8731180685    7.8773100082   -0.2701391390
     H    -0.0110873200    6.3183460915   -0.6520137608
     H     2.8489532379    8.1382019311    2.0042331142
     C    -1.3071620956    4.7626384566    1.1897458537
     H    -1.8612821191    5.0394511830    0.2872629837
     H    -2.0009993542    4.8014033447    2.0359653537
     C    -2.2617969211   -0.2030743105    1.5911789208
     N    -3.2872651654   -0.3536087251    2.1145754920
     C    -4.5142255575   -1.2853593217    4.0573663379
     C    -4.8577422156   -2.6395463634    4.0864161585
     C    -4.8513448167   -3.3473453197    5.3052094533
     C    -4.4998640492   -2.7020153041    6.4920916691
     C    -4.1594759047   -1.3497135973    6.4675978004
     C    -4.1700975212   -0.6395334725    5.2521209240
     H    -5.1586106184   -3.1506284817    3.1753575053
     H    -5.1367754329   -4.3946084285    5.3160456838
     H    -3.9016583867   -0.8329517976    7.3866560142
     H    -3.9309513075    0.4211591942    5.2544849336
     H    -4.5060926477   -3.2461565231    7.4309885094
     C    -4.5831660753   -0.5080803680    2.7572687221
     H    -4.9639211662    0.5070596539    2.9095680901
     H    -5.2269492961   -1.0023707224    2.0233068012
