17
-1.4954688393099536e+03 frame 49   xyz file generated by TeraChem
    Fe    -0.0330326005    0.0154775763   -0.0404747820
     P     2.4685247369    0.4709657038    0.3857429088
     H     2.7631763102    1.2975965076    1.4876432292
     H     3.2534709720   -0.6632446355    0.6720685827
     H     3.2238772017    1.0830000109   -0.6329711424
     P    -0.1697830690   -1.7089543922   -1.9551031750
     H     0.4058261528   -1.3130847664   -3.1781350489
     H     0.4314466111   -2.9661480863   -1.7536330595
     H    -1.4674823771   -2.0775520635   -2.3598867262
     P    -1.1886910024    2.2732607653   -0.5012200715
     H    -0.7147519057    2.9888478652   -1.6179638070
     H    -2.5701579135    2.2129545726   -0.7690991436
     H    -1.1385712403    3.2553412995    0.5065568286
     P    -1.1284104515   -1.0276734747    2.0473688443
     H    -0.5864576352   -2.2543362516    2.4783891296
     H    -1.0459461324   -0.2584122664    3.2245283816
     H    -2.5034484976   -1.3282210420    2.0059757719
