17
-4.2877901598712219e+02 frame 74   xyz file generated by TeraChem
    Co     0.0572235307   -0.0103358954   -0.1233158758
     N     2.1323838164   -0.0361490420    0.2971393119
     H     2.4592749299    0.7581590618    0.8562101887
     H     2.4224931663   -0.8723882180    0.8147159651
     H     2.7119825736   -0.0266746656   -0.5492697745
     N    -0.8648416378   -1.4143602248   -1.3917519181
     H    -0.8469111996   -1.1644637039   -2.3860813520
     H    -0.4265052575   -2.3406978670   -1.3385656420
     H    -1.8516569466   -1.5705587530   -1.1629998340
     N    -0.1347324979    2.0452422837   -0.5948143515
     H     0.0143324542    2.6564610144    0.2152843940
     H     0.5164679582    2.3800736904   -1.3122960312
     H    -1.0708110977    2.2836180929   -0.9391302398
     C    -1.5299230688   -0.8738724846    2.5683773056
     O    -0.9360482195   -0.6024925495    1.5260145079
     H    -1.1118638789   -1.6058307961    3.2727339348
     H    -2.4870589675   -0.3903093757    2.8067862024
