43
-2.2410975613847295e+03 frame 73   xyz file generated by TeraChem
    Ni    -0.5044815989    0.3671348137    0.2351959261
     C     2.6411682151    0.8822463966   -0.2590664739
     N     1.5179423574    0.6655668079   -0.0778746885
     C     4.0527801489    1.1543949237   -0.4869981345
     H     4.6066716990    1.0586440944    0.4527446687
     H     4.1766848754    2.1711629625   -0.8742729942
     H     4.4554271571    0.4410966213   -1.2139035670
     C    -1.5297559992   -3.6038944233   -2.3148012695
     C    -0.4273485845   -3.5515896783   -1.4382271107
     C    -0.1750130265   -2.3914450932   -0.7295536511
     N    -0.9411936716   -1.2819719701   -0.8385033515
     C    -1.9986955678   -1.3217984512   -1.6842001690
     C    -2.3240643043   -2.4432361018   -2.4220979448
     S    -1.9707879251   -5.0028240745   -3.2696881327
     H     0.2298372842   -4.4044599246   -1.3055145648
     H     0.6653459542   -2.3328807679   -0.0454767506
     H    -2.5940070596   -0.4180987756   -1.7633410581
     H    -3.1883037562   -2.4158824927   -3.0778306663
     H    -0.9709905480   -5.8068840396   -2.8536966529
     C    -2.1908709822    4.0609925620   -2.4019827205
     C    -1.2437841544    3.1673834054   -2.9431977139
     C    -0.7909269787    2.1078437699   -2.1799050749
     N    -1.2171387144    1.8719582738   -0.9164968232
     C    -2.1295790979    2.7299565181   -0.3920239777
     C    -2.6314190430    3.8133161242   -1.0848649518
     S    -2.8480344336    5.4426111761   -3.2490273769
     H    -0.8600569812    3.2937485454   -3.9500847614
     H    -0.0618149375    1.4112046828   -2.5812100162
     H    -2.4637598769    2.5330416303    0.6235230674
     H    -3.3581220451    4.4613944742   -0.6059434446
     H    -2.1656834639    5.2712035104   -4.3999628732
     C    -0.6005590376   -1.2197266127    4.8052182508
     C    -1.5129357765   -1.6969898124    3.8429904949
     C    -1.4120607168   -1.2636778768    2.5344573534
     N    -0.4689323290   -0.3848368763    2.1145777842
     C     0.4131871883    0.0729833633    3.0387739121
     C     0.3835124626   -0.3095897777    4.3640437246
     S    -0.6070250026   -1.6803957280    6.4919791145
     H    -2.2961137998   -2.3998597577    4.1065417649
     H    -2.1038474428   -1.6305672520    1.7827067331
     H     1.1643696518    0.7715839705    2.6852711777
     H     1.1173889870    0.0963033367    5.0526589990
     H    -1.6714373587   -2.5068511510    6.4334782154
