10
-8.0498299327906443e+02 frame 32   xyz file generated by TeraChem
    Cr    -0.5282638315   -0.1693911645    0.0813593178
     N     1.4701112195    0.0909736619   -0.1574863622
     C     2.6367556388    0.2554308441   -0.2805678005
     S     4.2536664904    0.4778505012   -0.4499354379
     O    -0.7662513955   -1.4618153713   -1.1618142848
     H     0.0836224533   -1.7030411726   -1.5653647156
     O    -0.8851592169    1.5793765004   -0.2589327849
     H    -0.0425547416    2.0524341690   -0.3742392211
     O    -0.8486996051   -0.5390401220    1.8372210479
     H    -0.0135860044   -0.5801393850    2.3298236280
