41
-1.1354584935347646e+03 frame 34   xyz file generated by TeraChem
    Co    -0.0814464598    0.0530460586    0.0918363430
     N    -1.2125787958   -0.9156600870   -1.2254598553
     N    -0.5115258454   -1.4752398098    1.2188506649
     C    -1.4190950169   -0.5834578917   -2.5131380182
     H    -0.9869766418    0.3515168912   -2.8485626334
     C    -2.1379648068   -1.3956858798   -3.3845088946
     H    -2.2808255535   -1.0886413147   -4.4147095650
     C    -2.6550897960   -2.5978075629   -2.9038144264
     H    -3.2206317220   -3.2567249269   -3.5552079660
     C    -2.4261469534   -2.9553182118   -1.5745337791
     H    -2.8026513278   -3.8971295427   -1.1932124811
     C    -1.8705871627   -3.4393778570    1.4035418052
     H    -2.5523106729   -4.1526892294    0.9554850677
     C    -1.5085378630   -3.5688370046    2.7449778725
     H    -1.8998476623   -4.3901343044    3.3370775732
     C    -0.6536174712   -2.6264093486    3.3160474900
     H    -0.3612590198   -2.6832584833    4.3587730508
     C    -0.1765274778   -1.5919958091    2.5175743783
     H     0.4877118816   -0.8318175775    2.9162970654
     C    -1.6963116790   -2.0986795040   -0.7524013230
     C    -1.3636007525   -2.3759495709    0.6577151171
     N     1.8628355567    0.2926482466    0.4173746674
     N     0.0925394338    1.8024626972   -0.7473989325
     C     2.7115949911   -0.6126168068    0.9388596883
     H     2.2730109407   -1.5392618142    1.2890279015
     C     4.0819198252   -0.3875802277    1.0201674868
     H     4.7289809195   -1.1451897002    1.4483082632
     C     4.5899700446    0.8181787145    0.5388294731
     H     5.6538354863    1.0286185535    0.5861118286
     C     3.7160091252    1.7523511397   -0.0190270028
     H     4.1001631046    2.6842141731   -0.4169808481
     C     1.5648856065    3.6610295897   -1.0929451322
     H     2.5530745072    4.0998684087   -1.0199613243
     C     0.5043853380    4.4119717949   -1.6013572053
     H     0.6707557549    5.4312608250   -1.9354341397
     C    -0.7682304021    3.8444584495   -1.6603761846
     H    -1.6213885030    4.4005424554   -2.0330469995
     C    -0.9332783490    2.5347001360   -1.2215244072
     H    -1.9056874295    2.0532090583   -1.2406940860
     C     2.3531400027    1.4659337381   -0.0736956877
     C     1.3339221325    2.3545959481   -0.6636763386
