22
-1.0122494901881203e+03 frame 78   xyz file generated by TeraChem
    Fe    -0.2308231932    0.1646864631   -0.4597290546
     N     1.0885875744    0.6336551788   -1.7771983955
     C     1.9019241140    0.9133422538   -2.5869463943
     S     3.0230672302    1.2961019898   -3.7033022847
     C     0.2832399496   -2.8538273170   -0.9759771702
     N     0.0878985941   -1.7297673309   -0.7799853551
     C     0.5256289829   -4.2654927875   -1.2193189950
     H     1.2896256303   -4.3843750764   -1.9951388573
     H    -0.4014602639   -4.7471680343   -1.5498851503
     H     0.8716070466   -4.7446646184   -0.2965632890
     C    -0.7504892181    3.1814661867    0.0596138739
     N    -0.5516802801    2.0583307180   -0.1383647967
     C    -0.9978577042    4.5911092271    0.3091813061
     H    -0.7956394738    5.1702693144   -0.5984706310
     H    -0.3422153719    4.9421429745    1.1142082537
     H    -2.0423102944    4.7381830588    0.6051831761
     C    -2.3581093770   -0.5911967128    1.6727624010
     N    -1.5646678593   -0.3148001975    0.8765512366
     C    -3.3527161110   -0.9449297671    2.6707611704
     H    -2.8821262387   -1.5322945118    3.4672482589
     H    -4.1458828231   -1.5405542668    2.2049903309
     H    -3.7892460615   -0.0376572685    3.1019288474
