15
-1.1506213744399570e+03 frame 34   xyz file generated by TeraChem
    Fe     0.1756791429    0.4552278766   -0.1091648473
     C     3.0406458638   -0.3104046451   -0.2622043535
     O     2.0267759826    0.1744385350    0.2521682202
     H     2.9827852472   -0.9730940492   -1.1354722404
     H     4.0182280111   -0.0686229692    0.1711250732
     C    -0.6958915459   -1.8687197020   -1.6824225509
     O    -0.0812007765   -0.8151825522   -1.4826590025
     H    -1.2966145480   -2.3466008930   -0.8981940315
     H    -0.6307015938   -2.3296130345   -2.6749242322
     S    -1.9409758723    1.5283196847   -0.4845383244
     H    -1.7610396123    2.7389007305    0.0948244058
     H    -1.7828902478    1.9897713889   -1.7475937472
     S    -0.4774648046   -0.6706435278    1.8399463893
     H    -1.2858142359    0.1924118081    2.4969556155
     H     0.5872186418   -0.4579953219    2.6474092499
