15
-1.2403606338069662e+03 frame 79   xyz file generated by TeraChem
    Co     0.0862830125   -0.0832325377   -0.0899549772
     S     2.1617639063    0.3309941887    0.9313627727
     C     2.4414094433    1.9462886571    0.5479987189
     N     2.5574788768    3.0703946282    0.2349020894
     S    -1.9891665590   -0.4979679869   -1.1103714884
     C    -2.2704314729   -2.1120962802   -0.7233163862
     N    -2.3877745837   -3.2356205532   -0.4086396849
     N    -0.1235662521    1.7588647067   -0.8774413736
     H    -1.0068154618    2.1785208992   -0.5817917569
     H     0.6375421065    2.4041978106   -0.6296902766
     H    -0.1572069854    1.6857300174   -1.8959329722
     N     0.2971465486   -1.9255178772    0.6969824367
     H    -0.4639732130   -2.5710524455    0.4498327897
     H     1.1803822420   -2.3450416472    0.4011396613
     H     0.3310741594   -1.8521841769    1.7154654213
