27
-8.0758566587930602e+02 frame 60   xyz file generated by TeraChem
    Mn    -0.3774023878   -0.2369511677   -0.2238959474
     C     4.2565373721    0.8350344932    0.1668393428
     C     3.7209351536    0.5606962637   -1.1024322942
     C     2.3854766762    0.2054359600   -1.1998719805
     N     1.5809387365    0.1165389346   -0.1165199650
     C     2.0919856733    0.3878762654    1.1075673466
     C     3.4197627330    0.7443797731    1.2899733712
     C     5.6337945024    1.2004030618    0.3105641990
     H     4.3351148777    0.6264837151   -1.9931726122
     H     1.9292397591   -0.0103797098   -2.1591499140
     H     1.4130438717    0.3182704276    1.9519050008
     H     3.7952936373    0.9517487790    2.2854133951
     N     6.7528365685    1.4924594429    0.4254004509
     C    -0.6723971333   -3.8373313995   -3.3177015053
     C     0.2694582922   -3.8796351223   -2.2762665640
     C     0.3589875133   -2.8005015328   -1.4125869237
     N    -0.4310788509   -1.7083094281   -1.5380540353
     C    -1.3439632600   -1.6672186874   -2.5372721031
     C    -1.4914116630   -2.7051645173   -3.4449975973
     C    -0.7924115433   -4.9317171507   -4.2335641792
     H     0.9153594170   -4.7397951479   -2.1427782628
     H     1.0673642470   -2.7979139533   -0.5912574184
     H    -1.9611949410   -0.7771397446   -2.5951933792
     H    -2.2318801292   -2.6357226926   -4.2334910218
     N    -0.8851493025   -5.8189786015   -4.9784735805
     I    -1.3611742504    2.0364099446   -0.7004547415
     I    -1.7088041825   -1.1449803535    1.7103804024
