15
-1.7526003959535160e+03 frame 29   xyz file generated by TeraChem
    Fe    -0.0935133910    0.0546022256    0.1101782020
     C     4.8715080882   -0.1344434121   -0.0932499218
     C     4.1628211894    0.7521111693   -0.9037482822
     C     2.7735218727    0.7888512325   -0.8003317551
     N     2.0982369281   -0.0024313701    0.0466375845
     C     2.7782571618   -0.8468219591    0.8366022288
     C     4.1677452693   -0.9462019849    0.7960442024
     H     5.9562909877   -0.1872073917   -0.1491386325
     H     4.6719155651    1.4092971328   -1.6022570228
     H     2.1625574374    1.4735097873   -1.3819696137
     H     2.1709872582   -1.4298714725    1.5233500723
     H     4.6807408397   -1.6426815475    1.4523489483
    Cl    -0.7046402417   -1.5195412349   -1.4637359963
    Cl    -0.4025560685    2.3519034912   -0.3589457520
    Cl    -0.4001794014   -0.4143754770    2.4069529115
