20
-1.0034653794703316e+03 frame 47   xyz file generated by TeraChem
    Co    -0.0205329008    0.2723623559   -0.2967920860
     C     3.0682895179   -0.2072014486    0.3451184043
     N     1.9937152678   -0.0076880172   -0.0340741434
     C     4.4175778193   -0.4589115618    0.8270868125
     H     4.4118971299   -0.4993380623    1.9212156763
     H     5.0860803469    0.3436027261    0.4998988354
     H     4.7804485093   -1.4137880459    0.4340415042
     C    -1.1982670978   -1.9718168762   -2.2349437098
     N    -0.6873169805   -1.1162653719   -1.6473912311
     C    -1.8441866225   -3.0477973920   -2.9706634110
     H    -1.1013967036   -3.7959277092   -3.2648481222
     H    -2.3273984067   -2.6473336049   -3.8674093347
     H    -2.5999575552   -3.5215394854   -2.3356969016
     C    -0.6169912442    3.1930183360   -1.4337663314
     N    -0.3267401709    2.1152649950   -1.1296702376
     C    -0.9846202687    4.5482595860   -1.8136516429
     H    -0.5688989278    4.7858433354   -2.7979571818
     H    -0.5936003788    5.2564143444   -1.0760932950
     H    -2.0751494512    4.6361909723   -1.8517361957
    Cl    -1.0174568502    0.0027752323    1.6355419354
