17
-3.9506455849529220e+02 frame 63   xyz file generated by TeraChem
    Ni    -0.0000698958   -0.0000098028   -0.0000211181
     N     1.6234404382   -1.0380456596    0.5218151559
     H     2.4009491827   -0.4225020552    0.7858079061
     H     1.4528753085   -1.6507027744    1.3266293235
     H     2.0022543540   -1.6515564511   -0.2048950485
     N     0.1193833420   -0.7365997011   -1.8459125428
     H     1.0012791585   -0.4868537615   -2.3075817255
     H     0.0696712172   -1.7614616850   -1.8551666692
     H    -0.6154203300   -0.4283200065   -2.4890079590
     N    -1.6232948100    1.0382889349   -0.5218801199
     H    -1.4523902048    1.6510980626   -1.3265151348
     H    -2.4009982708    0.4231167396   -0.7861736998
     H    -2.0020198420    1.6517823684    0.2049002190
     N    -0.1195804791    0.7362312184    1.8459544317
     H    -0.0699613857    1.7610999978    1.8555653542
     H    -1.0015025987    0.4862864640    2.3074782760
     H     0.6151726382    0.4278495243    2.4890639748
