16
-7.8472876918668840e+02 frame 33   xyz file generated by TeraChem
    Mn     0.0628234177   -0.0197883858   -0.4765363451
     C     4.9757389812    0.1132192250    0.2837283400
     C     4.2862929748    1.2203643466   -0.2318620359
     C     2.9172671509    1.1314008058   -0.4313379839
     N     2.2047582623    0.0201419656   -0.1515962600
     C     2.8694356966   -1.0448445029    0.3453928489
     C     4.2343323215   -1.0434452507    0.5756589524
     S     6.7157103924    0.0940093953    0.5848224859
     H     4.7981991677    2.1448817903   -0.4774967203
     H     2.3531939932    1.9694325437   -0.8296544313
     H     2.2685225576   -1.9217835638    0.5612570651
     H     4.7109393288   -1.9318440197    0.9766500049
     H     6.9656531047    1.3482186356    0.1569532564
     I    -0.5132831968   -2.5721407004   -1.5525474968
     I    -0.7484747274    2.3326732518   -1.4053664258
     I    -1.0117261665   -1.4214255602    1.7399240477
