13
-2.1094005097743202e+03 frame 40   xyz file generated by TeraChem
    Co    -0.3225971471   -0.6830539619    0.2942100941
     S     1.8316355624   -0.3113829512    0.6387006709
     C     2.5357929282   -0.0298850227   -0.8743340757
     N     3.1218708035    0.1785095566   -1.8653833952
     N    -0.3167797174   -1.1694325048   -1.4867819659
     C    -0.2795207358   -1.1858025308   -2.6772100773
     S    -0.2602978037   -1.2969752667   -4.2843922480
     N    -1.1311729371    0.9425491856    0.0930324371
     C    -0.9883445725    2.1232284063   -0.0147930136
     S    -0.9509999758    3.7255634689   -0.1673634776
     N    -0.5965237625   -0.9054748932    2.1289573474
     C    -0.6783482681   -0.7556527607    3.3070050804
     S    -0.8187694911   -0.6317892149    4.9113620015
