13
-4.4393779830449745e+02 frame 73   xyz file generated by TeraChem
    Co    -0.2285910781    0.2201743802    0.2366720272
     C     1.3053912137    1.1156764509    0.9715888238
     N     2.2365584559    1.6724842864    1.4085639182
     C    -1.7625470523   -0.6749252707   -0.4985601757
     N    -2.6937264833   -1.2315464133   -0.9357516417
     N    -0.5211577516    1.7251099587   -1.0519685768
     H    -1.3933334149    2.1943618196   -0.8063549996
     H     0.2393713141    2.4028518973   -1.0343894842
     H    -0.6361920659    1.3541426237   -1.9949483056
     N     0.0639527520   -1.2845046104    1.5254339459
     H    -0.6967708432   -1.9620224261    1.5074581510
     H     0.9361811144   -1.7540166407    1.2805622405
     H     0.1782289290   -0.9132644289    2.4683932680
