17
-3.2900853480350906e+02 frame 29   xyz file generated by TeraChem
    Mn    -0.0106815741    0.0071850945   -0.0111372668
     N     1.9659914501    0.0401334611   -0.0756942722
     H     2.3870949650    0.8084262360    0.4787409990
     H     2.4107726772   -0.8237999920    0.2863185026
     H     2.3529920091    0.1582570818   -1.0309792807
     N    -0.5496532392   -1.5413661133   -1.1406340796
     H    -0.2404475326   -1.4616695253   -2.1270969373
     H    -0.1789705970   -2.4543815185   -0.8192368952
     H    -1.5760673414   -1.6754113549   -1.1953121046
     N    -0.6597397507    1.7980120344   -0.5823209316
     H    -0.2743848071    2.1082688443   -1.4932676714
     H    -1.6890617091    1.8430084198   -0.7020252923
     H    -0.4349692224    2.5665964664    0.0760292433
     N    -0.7580766581   -0.2952047600    1.8001075617
     H    -0.4915518076    0.4332033588    2.4877641102
     H    -1.7944863448   -0.3207663681    1.8204781318
     H    -0.4590326475   -1.1907114598    2.2282508667
