31
-9.6514130516184719e+02 frame 62   xyz file generated by TeraChem
    Fe     0.1733258904   -0.1946544466   -0.2314964797
     O    -1.1364306691   -0.5410049575   -1.6020422546
     C    -1.5190257663   -1.8075541251   -1.6020070083
     C    -0.9025691870   -2.6548658254   -0.6088837288
     C    -1.2604434824   -4.0076116961   -0.5497987301
     C    -2.2097225078   -4.5629963199   -1.4408430881
     C    -2.7965453903   -3.7348740508   -2.3969581703
     C    -2.4556940615   -2.3674951872   -2.4788113881
     O    -0.0243783972   -2.0711230997    0.1886121629
     H    -0.7830649102   -4.6325960716    0.2073801477
     H    -3.5303744337   -4.1493781235   -3.0924804056
     H    -2.9175465870   -1.7232228214   -3.2276833011
     C    -2.5762065122   -6.0279474579   -1.3488760820
     H    -3.0075614381   -6.2975023120   -0.3698016513
     H    -1.7076559612   -6.6933285965   -1.4898526760
     H    -3.3180000129   -6.3001592031   -2.1129979821
     O     1.4814652431    0.1530220740    1.1406426423
     C     1.8612828017    1.4203583732    1.1424437108
     C     1.2464583375    2.2667708299    0.1474827941
     C     1.6018223114    3.6202294156    0.0899840801
     C     2.5464964484    4.1773693814    0.9848708118
     C     3.1314601473    3.3502108450    1.9429435958
     C     2.7934915512    1.9819914682    2.0229182617
     O     0.3714345398    1.6816443805   -0.6523978085
     H     1.1261313034    4.2444481395   -0.6688944428
     H     3.8615469988    3.7661660252    2.6415321301
     H     3.2537163058    1.3385242112    2.7734857591
     C     2.9103272197    5.6430804517    0.8945888286
     H     2.0396671589    6.3066261939    1.0311458466
     H     3.3460520808    5.9134897856   -0.0823234554
     H     3.6476766841    5.9169604730    1.6624141179
