20
-5.2149089354982254e+02 frame 120   xyz file generated by TeraChem
    Fe     0.0447451974    0.2813887636   -0.8019389319
     C     1.8993159057   -0.0026480522   -0.4694806043
     N     3.0357361957   -0.1824024749   -0.2808489910
     C     5.2459028050    0.7357189000   -0.8206306604
     C     5.0803346174    0.9706811546   -2.1909144552
     C     5.8332521420    1.9560499022   -2.8263163418
     C     6.7615927613    2.7069662678   -2.1000044602
     C     6.9302213402    2.4735225050   -0.7354217358
     C     6.1699776045    1.4924602824   -0.0953213171
     H     4.3540539859    0.3937817725   -2.7580027389
     H     5.6947599595    2.1377400176   -3.8881023411
     H     7.6467370820    3.0573961197   -0.1647782778
     H     6.2971513597    1.3178263832    0.9704603976
     H     7.3480336820    3.4739612636   -2.5978380268
     C     4.4498350809   -0.3540170224   -0.1243861894
     H     4.6644026454   -0.3713095112    0.9485747555
     H     4.6921173139   -1.3461818411   -0.5247916340
     I     0.4606387508    1.1438097298   -3.2789781605
     I    -2.4869944290    0.8895629739   -1.1321813618
     I    -0.7607480035   -0.6138808478    1.5784712523
