49
-2.7083500071071380e+03 frame 175   xyz file generated by TeraChem
    Fe     0.0020708002   -0.0050642386   -0.0034693907
     C     4.6595767123   -1.0984463308    0.7375865960
     C     4.2688914172    0.0984040264    0.0921817315
     C     2.9190891458    0.3527309267   -0.1121729556
     N     1.9306494657   -0.4886645908    0.3003029215
     C     2.3062793296   -1.6399345745    0.9278006430
     C     3.6307872955   -1.9804129153    1.1533862532
     S     6.3193433472   -1.5657385945    1.0540148411
     H     5.0008197065    0.8243824062   -0.2570815378
     H     2.6078710459    1.2591733507   -0.6280465241
     H     1.5064006261   -2.3008518419    1.2551461116
     H     3.8611101164   -2.9203976766    1.6524382111
     H     6.9122790373   -0.4692870793    0.5185686402
     C     0.7659116872   -0.2441658353   -4.7673587112
     C     0.4061726035    0.9829074313   -4.1601283949
     C     0.1862795846    1.0265389157   -2.7904493831
     N     0.3171733863   -0.0614387149   -1.9805742778
     C     0.6757143589   -1.2415566066   -2.5615835696
     C     0.8925610276   -1.3762801726   -3.9245944912
     S     1.0628297890   -0.4599290777   -6.4815769987
     H     0.2915343730    1.8957839898   -4.7417519427
     H    -0.1125756254    1.9566077304   -2.3112118356
     H     0.7966431708   -2.1003230638   -1.9033352733
     H     1.1662714712   -2.3505390607   -4.3264572644
     H     0.8542416377    0.8273585705   -6.8554330609
     C    -4.3465277053    2.0213037333   -0.6142854413
     C    -3.9862368253    0.8558016135   -1.3325583033
     C    -2.7318329756    0.2949436205   -1.1372764739
     N    -1.8177275101    0.8009075541   -0.2620028107
     C    -2.1685449156    1.9167996028    0.4388223204
     C    -3.3912569840    2.5524775635    0.2872838690
     S    -5.8850953268    2.8483089091   -0.7609431399
     H    -4.6682314356    0.3883145472   -2.0405159250
     H    -2.4368760280   -0.5917656793   -1.6944751868
     H    -1.4359102426    2.2983229788    1.1469197847
     H    -3.6024339270    3.4466006673    0.8716146736
     H    -6.4465020531    2.0100804680   -1.6680680221
     C    -0.9539278903   -0.7131319750    4.6834872189
     C    -1.6955209610   -1.3581360687    3.6656188092
     C    -1.3903861412   -1.1029121848    2.3353074121
     N    -0.3844504096   -0.2699082249    1.9471705948
     C     0.3338777456    0.3494736514    2.9277520643
     C     0.0814191192    0.1664673638    4.2782151456
     S    -1.2272182696   -0.9215457639    6.4023849943
     H    -2.5074883014   -2.0446582848    3.8981865988
     H    -1.9687482929   -1.5737386079    1.5422821975
     H     1.1356800730    1.0110409260    2.6059389964
     H     0.6872363783    0.6985377417    5.0100611668
     H    -2.2473811951   -1.8109612699    6.3083997827
