61
-1.8820567746260353e+03 frame 145   xyz file generated by TeraChem
    Co    -0.0388378907    0.3193165732    0.7352619089
     C     1.6901642509   -0.4794255815    1.1286536224
     N     2.7324228270   -0.8994213530    1.4168074157
     C     4.5294367299   -2.6023878051    1.1339397435
     C     4.2006821554   -3.8733272910    1.6226307220
     C     4.7111592203   -5.0345966206    1.0005092219
     C     5.5553840813   -4.9263089872   -0.1035979025
     C     5.8918988236   -3.6620387905   -0.5901090746
     C     5.3791474172   -2.4987737083    0.0290312173
     H     3.5706813774   -3.9788314029    2.5024318266
     H     4.4551194977   -6.0099170373    1.4024656830
     H     6.5639424876   -3.5615698687   -1.4367577500
     H     5.6764961667   -1.5236398576   -0.3483761044
     H     5.9618306776   -5.8173441400   -0.5709779414
     C     4.0451419218   -1.3559964259    1.8489257910
     H     4.7222501966   -0.5117833920    1.6849237578
     H     3.9647236231   -1.5168152180    2.9286426465
     C    -0.0137727876   -0.4247409481   -1.0523093901
     N     0.0269572440   -0.8764365151   -2.1200548146
     C    -1.1653524636   -1.9716412017   -4.0091886973
     C    -1.6929767391   -3.1939523197   -3.5615390755
     C    -2.8720957313   -3.7167300973   -4.1302841716
     C    -3.5183286919   -3.0292547324   -5.1546622253
     C    -2.9923876638   -1.8165607482   -5.6102447646
     C    -1.8156431861   -1.2856413606   -5.0343088065
     H    -1.1830216312   -3.7599219174   -2.7856209670
     H    -3.2594035226   -4.6669541853   -3.7764941992
     H    -3.4778656607   -1.2796704856   -6.4193109175
     H    -1.4126354993   -0.3519804500   -5.4177382925
     H    -4.4164907608   -3.4373422635   -5.6067235106
     C     0.1448718301   -1.4494217368   -3.4511250024
     H     0.5634375228   -0.6603679372   -4.0830991115
     H     0.8924964922   -2.2453157391   -3.3678435077
     C    -1.7526448048    1.1694169588    0.4054689791
     N    -2.7803134171    1.6724718813    0.2150732140
     C    -4.2433394623    3.6601084166    0.5167770500
     C    -3.8521197436    4.7803794870   -0.2261213372
     C    -4.0609404163    6.0830450369    0.2791451506
     C    -4.6659490882    6.2659315013    1.5225180807
     C    -5.0637257320    5.1528116120    2.2635615158
     C    -4.8535272095    3.8485900389    1.7608024249
     H    -3.4041669692    4.6595504903   -1.2092833327
     H    -3.7614710350    6.9397600339   -0.3164310785
     H    -5.5526246274    5.2803199405    3.2243839662
     H    -5.1952036463    2.9954405147    2.3413469850
     H    -4.8397972648    7.2669219334    1.9037773695
     C    -4.0811260626    2.2645715626   -0.0552283324
     H    -4.1926377113    2.2614675318   -1.1438589299
     H    -4.8184923436    1.5713086134    0.3613702503
     C    -0.0002366345    2.1038559706    5.1604912085
     C    -0.5507222547    0.8336094664    4.8873964200
     C    -0.5544773442    0.3524373638    3.5914098082
     N    -0.0479470453    1.0537599201    2.5503296993
     C     0.4789200927    2.2784547377    2.7977819446
     C     0.5208933065    2.8262828128    4.0635201023
     S     0.0793244094    2.8342448038    6.7445620908
     H    -0.9736684633    0.2182089954    5.6745006913
     H    -0.9736333820   -0.6246535961    3.3688540976
     H     0.8792058676    2.8246399289    1.9481985354
     H     0.9597701061    3.8095309570    4.1993022819
     H    -0.4994186183    1.8223593019    7.4235772235
