31
-1.7324355148738259e+03 frame 47   xyz file generated by TeraChem
    Mn    -0.5150210432    0.3716758089    0.4136041951
     O     1.5807488838    0.2999536076    0.1637336947
     N     3.4950031466   -1.1301262113   -0.2642421724
     C     2.5376551137   -0.4246058791   -0.0565936432
     O    -1.1659526812   -1.0716905346   -0.8757780258
     N    -2.0176986885   -1.2766034068   -3.1425001263
     C    -1.5939656683   -1.1719562114   -2.0240726967
     C    -1.7519395398    4.5885774438   -1.7249021792
     C    -0.4018139594    4.2082810827   -1.5646375525
     C    -0.1068996180    3.0418788195   -0.8843999616
     N    -1.0625581301    2.2375186715   -0.3452541167
     C    -2.3629173034    2.6023932954   -0.5019009737
     C    -2.7454531696    3.7492899639   -1.1687212672
     S    -2.2772201132    6.0208999393   -2.5681930464
     H     0.4103082722    4.8086608173   -1.9609951253
     H     0.9257053943    2.7317276808   -0.7543208946
     H    -3.1133352498    1.9488046972   -0.0669561911
     H    -3.7999624618    3.9916166890   -1.2536993316
     H    -1.0540007321    6.4763778407   -2.9160622801
     C    -1.0002217378   -1.8351149401    4.7745001775
     C    -0.7320681055   -0.4507238830    4.7129868991
     C    -0.6411249722    0.1618038787    3.4771906833
     N    -0.7974849004   -0.5063293436    2.3050649606
     C    -1.0623358390   -1.8381839497    2.3643657545
     C    -1.1701634987   -2.5295401374    3.5559202151
     S    -1.1357352348   -2.7470181421    6.2561728156
     H    -0.5939745655    0.1439517597    5.6098074562
     H    -0.4353849564    1.2262205096    3.4120662586
     H    -1.1913138050   -2.3572229197    1.4191655590
     H    -1.3822926208   -3.5937923323    3.5384266381
     H    -0.9028993793   -1.7266752031    7.1100992444
