22
-1.0122776044308832e+03 frame 61   xyz file generated by TeraChem
    Fe    -0.1085230165    0.2013418016    0.0330722710
     N     1.7868337285    0.5024829097    0.3561702995
     C     2.9474395381    0.6964787438    0.5485122638
     S     4.5138094920    0.9525807855    0.8092285247
     C    -0.3018691671   -1.9856372330   -2.2979069193
     N    -0.2361198663   -1.2021468009   -1.4447049253
     C    -0.3822107173   -2.9640843334   -3.3664681439
     H     0.6264610275   -3.2216718372   -3.7084890415
     H    -0.9542805877   -2.5497389735   -4.2043044213
     H    -0.8819136138   -3.8685718030   -3.0014082477
     C    -1.5410765389    2.9923922214   -0.5397828754
     N    -1.0258511263    1.9745280011   -0.3264693004
     C    -2.1867212688    4.2628798981   -0.8080968638
     H    -1.5855638893    4.8378488846   -1.5218544749
     H    -2.2849731130    4.8319765412    0.1234246509
     H    -3.1820665678    4.0877156330   -1.2323184607
     C    -1.3516814012   -1.1819553956    2.6464628917
     N    -0.9017101682   -0.6874745591    1.6983343567
     C    -1.9134230882   -1.8003120886    3.8333747989
     H    -1.1788525972   -1.7764705328    4.6460136149
     H    -2.1772546589   -2.8415701121    3.6160335335
     H    -2.8140438594   -1.2581219022    4.1426467762
