9
-1.2682743524866412e+03 frame 7   xyz file generated by TeraChem
    Cr     0.5597046801   -0.6429868412   -0.5276626014
     S     2.8353555299   -0.3301761863   -0.7066536346
     C     3.1895050074    0.5083479179    0.7296877941
     N     3.4661658836    1.0856916471    1.7093670659
     S     0.3036120124   -1.7231577034   -2.5896411442
     C    -1.3744507401   -1.9783314451   -2.5916679219
     N    -2.5288785320   -2.1699763901   -2.6272998544
     F    -0.2018111998    0.9030867342   -0.6866468170
     F     0.1330632350   -1.8034101944    0.6848122770
