50
-1.3141423233184325e+03 frame 179   xyz file generated by TeraChem
    Fe    -0.6379299594    0.9808611157   -0.6184293356
     C     0.9367501024    0.0827686988    0.1451996685
     N     1.7842301138   -0.4664699740    0.7192806127
     C     4.1275100334   -0.4935933267    1.4905350923
     C     4.3864099031    0.6026065439    2.3273298148
     C     5.6562068199    1.2120453557    2.3364978663
     C     6.6710242970    0.7254258377    1.5161568176
     C     6.4200258146   -0.3699170475    0.6852483536
     C     5.1471694474   -0.9781770193    0.6723988951
     H     3.6087626711    0.9805545033    2.9864686189
     H     5.8397604501    2.0542496873    2.9961783970
     H     7.2069024650   -0.7660511640    0.0508226072
     H     4.9743138546   -1.8392957270    0.0321188836
     H     7.6537365473    1.1855384191    1.5287585805
     C     2.7684656302   -1.1677524728    1.5087756755
     H     2.3638972254   -1.2260097334    2.5244415395
     H     2.8246014568   -2.1856703051    1.1116244837
     C     0.1659128556    1.2985507359   -2.4127725207
     N     0.6393097320    1.4956927619   -3.4551458073
     C     0.7480660005    0.7485508494   -5.7982500060
     C     1.4442933841   -0.4493857870   -5.9961372976
     C     1.0215173544   -1.3619049391   -6.9777961209
     C    -0.0953702955   -1.0777151945   -7.7635155457
     C    -0.7903190113    0.1175759235   -7.5718495789
     C    -0.3691367981    1.0311357499   -6.5897177509
     H     2.3260819208   -0.6731253033   -5.4010005483
     H     1.5762727466   -2.2827891000   -7.1275955345
     H    -1.6523152217    0.3536945038   -8.1878940877
     H    -0.9078117808    1.9666916131   -6.4622611163
     H    -0.4166007269   -1.7779798799   -8.5278510106
     C     1.2212552380    1.7446130798   -4.7567006685
     H     0.9484737434    2.7693513524   -5.0268645899
     H     2.3069045805    1.7060555930   -4.6258767933
     C    -2.3345348164    1.8442068815   -1.0103385340
     N    -3.4010033234    2.3072618952   -0.9949735035
     C    -5.2230895447    2.6539979311    0.6252970712
     C    -4.4925337998    2.0083684544    1.6346565812
     C    -5.0446699988    1.9074821251    2.9053319282
     C    -6.3262641117    2.4472054832    3.1825542884
     C    -7.0565044509    3.0919752164    2.1710213544
     C    -6.5124651147    3.1954530749    0.9034766929
     H    -3.5093650359    1.5888495034    1.4399017573
     H    -4.4922813495    1.4103510854    3.6963378734
     H    -8.0371080787    3.5051403503    2.3821952360
     H    -7.0678783657    3.6932194581    0.1125936233
     H    -6.7414707493    2.3593899298    4.1818738111
     C    -4.7172709697    2.8173314573   -0.7955952594
     H    -4.7138558938    3.8775251456   -1.0808296616
     H    -5.3857105388    2.3039395999   -1.4999083022
     F    -1.3993031685    0.7087022151    0.9693649680
