10
-3.1223132791441742e+02 frame 48   xyz file generated by TeraChem
    Co    -0.0258611627    0.3422640270    0.3165466069
     C     3.1580129230   -0.1059564751   -0.1463982100
     N     2.0254298322    0.0642425408    0.0077344722
     C     4.5860916633   -0.3218148744   -0.3426260309
     H     5.1002487606   -0.3247830752    0.6235755034
     H     5.0036275841    0.4765181430   -0.9641206334
     H     4.7548769297   -1.2831360449   -0.8378414979
     I    -0.9472826432   -1.6269595496   -1.2347962004
     I    -0.2570518107    2.9187207674   -0.3344015559
     I    -0.4090124692   -0.1390225646    2.9097138863
