38
-9.4474279896245503e+02 frame 56   xyz file generated by TeraChem
    Cr    -0.2304383619    0.0977648724   -0.1047069396
     C     2.5512442122    1.0726341487   -0.7851650370
     O     1.6395123088    0.3309803424   -0.3809313635
     H     3.5826769418    0.7036455628   -0.7406886961
     H     2.3442858171    2.0750164035   -1.1786214741
     C    -1.3546832881   -3.8042818943   -2.5273712223
     C    -0.0395312880   -3.6022766481   -2.0907653874
     C     0.2747336132   -2.4329360082   -1.4170852537
     N    -0.6679922727   -1.4749771429   -1.1740437868
     C    -1.9522027093   -1.6730237728   -1.5955962921
     C    -2.3222979058   -2.8217655440   -2.2745445080
     H    -1.6232329643   -4.7142976950   -3.0573352722
     H     0.7358099671   -4.3401860512   -2.2714857450
     H     1.2814251120   -2.2383260626   -1.0616229373
     H    -2.6747934214   -0.8885971574   -1.3853242484
     H    -3.3501382104   -2.9442804863   -2.6013444264
     C    -2.3750504913    4.1193898035   -1.3438538178
     C    -2.0887510440    3.1422295408   -2.3073375259
     C    -1.4782411705    1.9637676827   -1.9108929229
     N    -1.1565928304    1.7346506768   -0.6024961737
     C    -1.4300460017    2.6872013797    0.3385905118
     C    -2.0392758866    3.8837483307   -0.0045345413
     H    -2.8527133744    5.0516167007   -1.6337432261
     H    -2.3369793445    3.2904847216   -3.3537428847
     H    -1.2408694030    1.1820853144   -2.6275593614
     H    -1.1554673744    2.4646759995    1.3648471978
     H    -2.2479038632    4.6174864731    0.7678781139
     C    -0.7836670548   -0.9441603421    4.4806643715
     C    -1.8834340070   -0.7487228616    3.6327874483
     C    -1.6561132083   -0.4144177618    2.3091121564
     N    -0.3920914289   -0.2685428547    1.8105536532
     C     0.6783056789   -0.4676464195    2.6349097446
     C     0.5118472725   -0.7990514892    3.9699900310
     H    -0.9361845018   -1.2088537743    5.5236055566
     H    -2.9015401197   -0.8551665534    3.9936695825
     H    -2.4855787807   -0.2583279985    1.6224496383
     H     1.6623697031   -0.3517598890    2.1962811123
     H     1.3859772368   -0.9427894823    4.5974259915
