16
-2.1506089590186343e+03 frame 51   xyz file generated by TeraChem
    Fe     0.1516364761    0.2060954505    0.3574061333
     C     4.8199921435   -0.1754763305   -0.1979757547
     C     3.9906777757    0.3468784345   -1.2030085239
     C     2.6286938105    0.4411361688   -0.9778077942
     N     2.0640483028    0.0511886377    0.1847374365
     C     2.8504044422   -0.4501993991    1.1613664631
     C     4.2192383604   -0.5783127355    1.0051457934
     S     6.5669758434   -0.3522960836   -0.3638749208
     H     4.3893056704    0.6781253115   -2.1557032619
     H     1.9595408362    0.8368949354   -1.7326407532
     H     2.3458233969   -0.7406159828    2.0739404756
     H     4.8067696764   -0.9884209208    1.8195606472
     H     6.6587137584    0.1296180551   -1.6200121569
    Cl    -0.4679236941   -1.2106374900   -1.1819116295
    Cl    -0.1959373751    2.3104788328   -0.0137518631
    Cl    -0.1936359840   -0.0875951146    2.5034884598
