14
-1.7328751627448901e+03 frame 109   xyz file generated by TeraChem
    Co     0.6280823244    0.5442135169   -0.1927475039
     S     2.0205955531    1.7590792033   -1.5931097613
     C     2.6976196369    0.7272061669   -2.7502004980
     N     3.2051926191    0.0662091329   -3.5730857962
     S     0.9560669036   -1.5399638916   -1.2564908748
     C    -0.1911872245   -2.4737639889   -0.4511980299
     N    -1.0042499648   -3.0930336743    0.1290327750
     S    -0.4727125928    2.5861302836    0.2482026227
     C    -1.5347552387    2.1663150278    1.4877450341
     N    -2.2819981517    1.8287875330    2.3282613712
     C    -1.1375492615   -0.7369764234    1.6893126096
     O    -0.0098783558   -0.3173604075    1.4377115142
     H    -1.3336026925   -1.2074769615    2.6588683107
     H    -1.9656707692   -0.6592666329    0.9804872679
