27
-5.7966940878797016e+02 frame 64   xyz file generated by TeraChem
    Fe    -0.1116291934   -0.0651512892   -0.0687934894
     C     2.9859748814    0.2583253309    0.2484011827
     N     1.8206313672    0.1670986341    0.1597094599
     C     4.4146127189    0.3713801764    0.3588733219
     H     4.6908119880    0.6309996480    1.3926145199
     H     4.7803720783    1.1567686341   -0.3206833407
     H     4.8846355054   -0.5870834790    0.0887477926
     C    -0.9713625591   -2.1830938618   -2.1930331407
     N    -0.6777439696   -1.3820911557   -1.3886915657
     C    -1.3362301703   -3.1636498847   -3.1776072676
     H    -0.4285113132   -3.6055749884   -3.6173582983
     H    -1.9298945710   -2.6889525396   -3.9744462481
     H    -1.9346280409   -3.9595246426   -2.7072541785
     C    -1.4196183852    2.7482832302    0.1936643904
     N    -0.7507030555    1.7929738921   -0.7635068318
     H     0.0806401644    2.2494128655   -1.1666125139
     H    -1.3780565521    1.6260903721   -1.5628615582
     H    -0.7613621049    2.9414965195    1.0425014313
     H    -2.3767875154    2.3352098145    0.5158976100
     H    -1.6045290872    3.6952487750   -0.3300001809
     C    -1.4097166098    0.1715727950    2.7590036980
     N    -0.7400137667   -0.7712951507    1.7898347406
     H    -1.3630277498   -1.5732961666    1.6195078892
     H     0.0964888646   -1.1730210517    2.2380228203
     H    -2.3697194495    0.4946101034    2.3534292081
     H    -0.7545308254    1.0209419611    2.9596390778
     H    -1.5884193777   -0.3647820607    3.7000138102
