11
-1.0880057558947783e+03 frame 45   xyz file generated by TeraChem
    Fe     0.2691141593   -0.1160946952   -0.3212035615
     O     2.0766845558    0.6962677199   -0.0607750670
     N     3.1361141395    2.2495378399    1.4848524596
     C     2.5887699775    1.4976143649    0.7547934714
     O     0.9083389884   -1.4341134622   -1.6930341815
     N    -0.1471463093   -2.8932335389   -3.3302899905
     C     0.3305583737   -2.1715563490   -2.5242291149
     O    -1.0326038670    1.0302544757   -1.2696859539
     N    -2.8586866815    2.5520650289   -0.7486449380
     C    -1.9700587013    1.8034305133   -0.9633464399
    Cl    -0.6844641312   -1.0442092319    1.5955899063
