8
-5.3757006852104576e+02 frame 61   xyz file generated by TeraChem
    Fe     0.3648792500    0.6422730014    0.2217628549
     C     2.8443314873   -0.6778761849   -0.2685416230
     O     2.2409773795    0.4234506998   -0.0806354304
     H     2.6597534451   -1.5453975169    0.3755879985
     H     3.5075228314   -0.8011630808   -1.1342388509
     F    -0.1634722129   -0.5808962852   -0.9965917066
     F    -0.4460002788    2.2290574746   -0.0713876769
     F     0.0968098757    0.3109337346    1.9535740490
