9
-3.8952259803960891e+02 frame 18   xyz file generated by TeraChem
    Cr    -0.0313642706    0.0282651515   -0.0021211576
     O     1.7489394585   -0.1736116527   -0.3207290773
     H     1.8960715705   -1.0235389201   -0.8088547700
     O    -0.6548715610   -1.2281809894   -1.1668812501
     H     0.0831405903   -1.4792726682   -1.7779845477
     O    -0.7666717661    1.6601943909   -0.3259407180
     H    -1.3175876037    1.9200101477    0.4571667411
     O    -0.3549080108   -0.2809678605    1.7559958225
     H    -0.6028626033    0.5770611907    2.1893258154
