16
-2.1135180240126851e+03 frame 61   xyz file generated by TeraChem
    Cr     0.2359245584   -0.5775002226    0.3411865816
     C     4.9189103314    0.3130647531   -0.2569101092
     C     4.0258684119    1.3837253385   -0.0977791621
     C     2.6743905852    1.1238198190    0.0536023961
     N     2.1730124729   -0.1308232107    0.0581003902
     C     3.0291565364   -1.1679753563   -0.0944334043
     C     4.3908906715   -0.9894508372   -0.2540419816
     S     6.6592464782    0.5095661716   -0.4614026339
     H     4.3668245761    2.4134655262   -0.0933939626
     H     1.9467510805    1.9180000254    0.1693359940
     H     2.5926622736   -2.1612718059   -0.0923401872
     H     5.0312156007   -1.8567307605   -0.3748280691
     H     6.6775547432    1.8561807453   -0.3920354108
    Cl    -0.3170541673   -2.0668611168   -1.1515049621
    Cl    -0.6955347594    1.4022368098    0.0345644406
    Cl     0.0278254287   -1.5494364375    2.2761451970
