16
-1.1154406002958192e+03 frame 45   xyz file generated by TeraChem
    Ni     0.0606773715   -0.1930286044   -0.3163773706
     C     4.8489479756    0.0944248001    0.2472504933
     C     4.1689430373    0.9862765898   -0.5910445311
     C     2.7873887048    0.8625700424   -0.7149982641
     N     2.1096103765   -0.0900131437   -0.0661226970
     C     2.7393570717   -0.9296226515    0.7611144493
     C     4.1186834211   -0.8773716066    0.9435672700
     S     6.6213506794    0.1484605068    0.4818455335
     H     4.6962872125    1.7671712802   -1.1318979039
     H     2.1350398625    1.5193608897   -1.2910856748
     H     2.0696390996   -1.6125373097    1.2791133162
     H     4.6087608430   -1.5744915090    1.6171597468
     H     6.8610583794    1.1803015713   -0.3535621981
     F    -0.4700487700   -1.4210624845   -1.5733640488
     F     0.1135983176    1.6199728353   -0.9702887841
     F    -0.0940325285   -1.0571407620    1.3453591192
