27
-1.4607070025550172e+03 frame 45   xyz file generated by TeraChem
    Co     0.1989627937   -0.1998130114   -0.0108916529
     C     5.0318946666   -0.3026901772    0.0207721212
     C     4.3222650027    0.5220278055   -0.8715991400
     C     2.9395847898    0.4956225562   -0.8651310970
     N     2.2224166098   -0.2971462437   -0.0364085475
     C     2.9017708316   -1.0877001550    0.8276991398
     C     4.2818711841   -1.1229493661    0.8853451919
     S     6.7832588260   -0.3652756139    0.1233482756
     H     4.8354034682    1.1844542172   -1.5603578800
     H     2.3746021289    1.1339261875   -1.5380517748
     H     2.3043898137   -1.6980144691    1.4976162337
     H     4.7686167366   -1.7745342564    1.6034210525
     H     7.0340833347    0.5577699192   -0.8273600175
     C    -1.8424898515   -2.8265859854   -3.5017348524
     C    -0.4806596340   -2.9815635191   -3.1839795103
     C     0.0777070314   -2.1939853884   -2.1936932718
     N    -0.6281546947   -1.2688188899   -1.5056314153
     C    -1.9397682185   -1.1160621792   -1.8080457553
     C    -2.5736525464   -1.8613672989   -2.7829856534
     S    -2.6784765818   -3.7567284077   -4.7334928609
     H     0.1415428923   -3.7058521974   -3.6987848219
     H     1.1268452672   -2.2965727273   -1.9342704960
     H    -2.4814094043   -0.3659889280   -1.2410911271
     H    -3.6271264353   -1.6936003895   -2.9806229940
     H    -1.6251796060   -4.5089779899   -5.1125718041
     I    -0.7841603423    2.3055263029    0.3020106749
     I    -0.9992098764   -0.5222739269    2.3960831391
