11
-1.2945837768737329e+03 frame 54   xyz file generated by TeraChem
    Co     0.2358656468    0.2820387835   -0.6267414394
     C     2.8494477019   -0.2375267867    0.6108797203
     O     2.2988878581    0.0001830806   -0.4537669430
     H     2.2723875472   -0.4158614767    1.5296755881
     H     3.9477825826   -0.2839375487    0.6561243627
     C    -1.0232169009   -1.8665552458   -2.2401346430
     O    -0.1971135734   -0.9658920935   -2.2470282307
     H    -1.5588767241   -2.1437674156   -1.3213044361
     H    -1.2311421605   -2.4175579138   -3.1695375982
    Cl    -0.1226007126    2.4244227952   -0.9937975529
    Cl    -0.4455052594   -1.1430112045    0.9836395862
