25
-1.5405386528942875e+03 frame 40   xyz file generated by TeraChem
    Fe    -0.1222250728   -0.4684207621    0.4659718605
     C     4.5719130775    0.3795558878   -0.3163615860
     C     3.6052602848    1.2870554743   -0.7482286280
     C     2.2639825689    1.0100843672   -0.5046759331
     N     1.8653789531   -0.1099323426    0.1312401565
     C     2.7999186686   -0.9838685349    0.5565658543
     C     4.1594095690   -0.7735906210    0.3501342481
     H     5.6270181767    0.5705198620   -0.4904645521
     H     3.8778847760    2.2032583088   -1.2615733011
     H     1.4700185553    1.6905624842   -0.7948739733
     H     2.4228129012   -1.8529716204    1.0854994524
     H     4.8748677483   -1.5037371621    0.7138888413
     C    -1.2563281958   -2.9842855547   -3.5052189301
     C    -0.8489263479   -3.6460776042   -2.3476279502
     C    -0.5265385571   -2.8972113391   -1.2205482838
     N    -0.5917086235   -1.5510880383   -1.2099440543
     C    -0.9933128961   -0.9102136004   -2.3260302202
     C    -1.3311197791   -1.5918408431   -3.4907664581
     H    -1.5164519432   -3.5430655161   -4.3997276766
     H    -0.7845918406   -4.7284600831   -2.3073313256
     H    -0.2224481076   -3.3543683237   -0.2851383923
     H    -1.0583560601    0.1708159532   -2.2539813088
     H    -1.6526539244   -1.0333134672   -4.3636910174
    Cl    -1.1249885312    1.5581954162    0.1198347296
    Cl    -0.1060490344   -2.0839336454    2.0921293303
