33
-1.0129163406465742e+03 frame 83   xyz file generated by TeraChem
    Mn     0.1759633463    0.0039663223    0.0969934078
     C     4.7317296571   -1.0410172699    0.2575665358
     C     4.1148614993   -0.7263722357   -0.9776103651
     C     2.7589991274   -0.4752691764   -1.0085098460
     N     1.9928074396   -0.5267498663    0.1267016688
     C     2.5822208098   -0.8304152548    1.3267065972
     C     3.9346238547   -1.0885333101    1.4243499990
     C     6.1260434337   -1.3012508810    0.3223167392
     H     4.6948788383   -0.6815458817   -1.8943729118
     H     2.2565565674   -0.2300936071   -1.9389286241
     H     1.9460512021   -0.8548875857    2.2049955428
     H     4.3713873493   -1.3250075407    2.3898971017
     N     7.2719414004   -1.5147463300    0.3750324435
     C    -1.9563645047   -1.9623950698   -3.5892359582
     C    -1.0322717004   -2.6955212310   -2.8077704061
     C    -0.3944848818   -2.0697410147   -1.7567002346
     N    -0.6277594884   -0.7550797115   -1.4485481309
     C    -1.5226197357   -0.0397380602   -2.2006863689
     C    -2.1956628094   -0.6090091422   -3.2636322386
     C    -2.6311839375   -2.5777944821   -4.6775724098
     H    -0.8202115165   -3.7376068743   -3.0266132822
     H     0.3224028653   -2.6044937270   -1.1419270442
     H    -1.6961229845    0.9935298298   -1.9251303326
     H    -2.9003494096   -0.0132983724   -3.8359173267
     N    -3.1842493862   -3.0839880581   -5.5708066042
     C     0.0848803280    3.0962080668   -0.2743781998
     O    -0.1113665656    1.8728562482   -0.1996527097
     H    -0.7338491274    3.7851193621   -0.0281069961
     H     1.0599303054    3.4893991935   -0.5899532947
     C    -1.3012227732   -1.4847200396    2.3817727348
     O    -0.5326182341   -0.7917215788    1.6967994842
     H    -1.4037678973   -1.2627250446    3.4521010773
     H    -1.8687153544   -2.3111597704    1.9349941159
