40
-1.5062782772604353e+03 frame 65   xyz file generated by TeraChem
    Cr    -0.2621705342   -0.0659968657   -0.0389461336
     C     4.3836744546   -0.5413317001    0.8523009881
     C     3.8966259623    0.7056351078    0.4057051591
     C     2.5538664101    0.8434560842    0.1107538119
     N     1.6764142915   -0.1964075972    0.2508090130
     C     2.1455893042   -1.4104930090    0.6715930976
     C     3.4762081962   -1.6160182798    0.9794860645
     C     5.7614590209   -0.7154880455    1.1617432925
     H     4.5628462368    1.5551808718    0.2918549048
     H     2.1494474299    1.7855769245   -0.2364626980
     H     1.4311630124   -2.2248076129    0.7553930830
     H     3.8107470148   -2.5930610271    1.3139871740
     N     6.8898052046   -0.8590033629    1.4132135192
     C    -1.3802097983   -2.2099180640   -4.1284823186
     C    -0.0221356812   -1.9711844698   -3.8267847188
     C     0.3097254757   -1.3414930763   -2.6410973597
     N    -0.6464926062   -0.9496468040   -1.7490815985
     C    -1.9647331808   -1.1655906247   -2.0393314964
     C    -2.3630542906   -1.7889800082   -3.2066656513
     C    -1.7518285698   -2.8578589454   -5.3400498822
     H     0.7621561563   -2.2779740252   -4.5119139410
     H     1.3436521209   -1.1476198502   -2.3798856456
     H    -2.7043261676   -0.8206634785   -1.3194111845
     H    -3.4192221907   -1.9467364373   -3.4022759859
     N    -2.0549664004   -3.3874116488   -6.3321186647
     C    -1.1494245847    4.5361605913   -0.7787820198
     C    -0.7333346661    3.7716429613   -1.8919783433
     C    -0.4288867557    2.4343897773   -1.7209399262
     N    -0.5226728108    1.8323745876   -0.5004991066
     C    -0.9134208339    2.5697859582    0.5820780322
     C    -1.2364085971    3.9096336437    0.4837381228
     C    -1.4724992991    5.9140600091   -0.9267785961
     H    -0.6560554120    4.2228518081   -2.8764042028
     H    -0.1142372677    1.8136677170   -2.5517900447
     H    -0.9643923709    2.0659875517    1.5488446046
     H    -1.5483116839    4.4624301052    1.3643024253
     N    -1.7349770475    7.0423447327   -1.0493386069
     S    -1.7414343394   -1.6183885786    1.5449140403
     H    -1.2402476130   -1.5581905469    2.8000374207
     H    -1.3911843896   -2.9040469116    1.3192797345
