27
-1.6620463686732817e+03 frame 95   xyz file generated by TeraChem
    Ni     1.1782653154   -1.1018056639   -1.1196833095
     C     5.7872266962    0.4425324591   -0.7971295518
     C     4.7683706991    1.2974145571   -1.2396336817
     C     3.4706588011    0.8095100562   -1.3222054708
     N     3.1574772380   -0.4558841457   -1.0010282965
     C     4.1253433527   -1.2788691320   -0.5646137388
     C     5.4478738571   -0.8734620597   -0.4497140855
     S     7.4841801735    0.9417277476   -0.6482455154
     H     4.9723837686    2.3280562767   -1.5124548784
     H     2.6238970804    1.4113268146   -1.6355219595
     H     3.7809295268   -2.2728507323   -0.2988317152
     H     6.1980026197   -1.5710661511   -0.0908168345
     H     7.3118882793    2.2153699513   -1.0567574453
     C    -3.3883986238   -2.6943895416   -1.7873964717
     C    -2.3724715327   -3.5713671432   -1.3831551691
     C    -1.0868443749   -3.0755219078   -1.2080299804
     N    -0.7792119784   -1.7859814646   -1.4199155437
     C    -1.7496676502   -0.9359796289   -1.7946395843
     C    -3.0614048037   -1.3457145751   -1.9904945469
     S    -5.0689651393   -3.2029881823   -2.0496218842
     H    -2.5716304168   -4.6228026872   -1.2010397239
     H    -0.2533206503   -3.6859659323   -0.8760929928
     H    -1.4184671861    0.0896124503   -1.9177889807
     H    -3.8137704260   -0.6244866866   -2.2936320926
     H    -4.8902191616   -4.5045895678   -1.7453886770
     F     0.6254835859    0.6227806932   -1.4153241055
     F     1.6203506993   -2.7027967270   -0.3588181081
