43
-1.0978714789161450e+03 frame 93   xyz file generated by TeraChem
    Fe     0.5552689598    0.1707140750   -0.3753627695
     O     2.7664407623   -0.4066969482   -1.1167439970
     C     2.9264290856    0.7582983758   -0.3918063890
     C     2.3061913485    1.8027649763   -1.0244493799
     C     1.7104753336    1.2572444102   -2.2203212784
     C     2.0029257485   -0.0815688259   -2.2281838426
     H     3.5392873881    0.6828958039    0.4947339374
     H     2.3041969422    2.8354657773   -0.7034716874
     H     1.8404589666   -0.8767892485   -2.9405531850
     H     1.1649247795    1.7973095349   -2.9817958061
     C    -1.9316255726   -3.8298648763   -1.1632555054
     C    -0.5424587926   -3.7825970515   -1.2895962424
     C     0.1115779862   -2.5745698005   -1.0834788508
     N    -0.5423692808   -1.4315784197   -0.7668067636
     C    -1.8840828353   -1.4900377425   -0.6244810814
     C    -2.6087856225   -2.6602279420   -0.8194682120
     H    -2.4714205403   -4.7581703917   -1.3221959429
     H     0.0337078199   -4.6655417734   -1.5449649721
     H     1.1926205222   -2.5201938076   -1.1663508326
     H    -2.3794377099   -0.5705290797   -0.3419241574
     H    -3.6866017547   -2.6465733947   -0.6973939357
     C    -2.5138551196    3.7622469328   -1.0060344590
     C    -2.5102892804    2.6783090878   -1.8857062657
     C    -1.6564957095    1.6087668101   -1.6392468959
     N    -0.8281108944    1.5722443506   -0.5690805921
     C    -0.8282966119    2.6312035940    0.2742651368
     C    -1.6524254335    3.7352491200    0.0917262556
     H    -3.1697252693    4.6107230147   -1.1749149028
     H    -3.1562192460    2.6564131493   -2.7570911052
     H    -1.6255694291    0.7567936419   -2.3100873947
     H    -0.1441827252    2.5748816823    1.1142561134
     H    -1.6122389632    4.5556465115    0.8003886072
     C     0.1979397075   -1.0284518071    4.2364565670
     C    -0.8230091546   -0.2771146270    3.6549602701
     C    -0.7115795810    0.1023525477    2.3217862430
     N     0.3584047493   -0.2169312554    1.5613464436
     C     1.3361391155   -0.9633265648    2.1280047479
     C     1.2957196130   -1.3832388273    3.4506304880
     H     0.1372653211   -1.3374899394    5.2753086295
     H    -1.7025905985    0.0120184793    4.2202164541
     H    -1.4954266102    0.6740987857    1.8415887175
     H     2.1688788592   -1.2376837947    1.4874321387
     H     2.1109675449   -1.9769623220    3.8499862687
