13
-4.5018819516195873e+02 frame 71   xyz file generated by TeraChem
    Co     0.0004302519    0.0002626934    0.0000847935
     O     0.9984133767    0.6816180801   -1.5699184498
     H     0.5772903062    1.0792701503   -2.3572537998
     H     1.9029659923    0.4063428475   -1.8177352490
     O    -0.1917153803   -1.7557424764   -0.7753253720
     H    -0.8053321302   -2.4201315312   -0.4028619304
     H    -0.0428177174   -1.9689921634   -1.7170280523
     O     0.1926371049    1.7557493501    0.7763905571
     H     0.0479801303    1.9676047291    1.7190719837
     H     0.8015123928    2.4226134157    0.4006189376
     O    -0.9990328625   -0.6794319762    1.5699995530
     H    -0.5800501895   -1.0869723554    2.3533540777
     H    -1.9024287279   -0.4023434486    1.8198352460
