19
-4.2475832371187573e+02 frame 41   xyz file generated by TeraChem
    Fe     0.2033560454   -0.2113380762   -0.2466398097
     C     3.2146435471    0.1676017728    0.1051971879
     N     2.0440044594    0.0728113676    0.0406843838
     C     4.6408157460    0.2758650906    0.1770434680
     H     4.9664288937    0.2523867153    1.2312838693
     H     4.9726188508    1.2199748964   -0.2866985056
     H     5.1050465039   -0.5714032495   -0.3576406920
     N    -1.1554585952   -1.1242041715   -1.3686925728
     H    -2.1494831701   -0.9111467545   -1.1896418996
     H    -1.0112153809   -0.9138386343   -2.3724912885
     H    -1.0838756031   -2.1547945680   -1.3024272540
     N    -0.4394565559    1.6164877483   -0.3616060327
     H    -0.0061110514    2.2168329717    0.3588641743
     H    -0.1816373822    2.0353148006   -1.2735475906
     H    -1.4613322234    1.7323073160   -0.2675165925
     N    -0.3545975479   -0.8250559426    1.5075213413
     H    -1.3659103812   -0.7424313195    1.7003075306
     H    -0.1135944142   -1.8235109221    1.6420848457
     H     0.1330115157   -0.3118924568    2.2602033212
