71
-2.1993857410530049e+03 frame 25   xyz file generated by TeraChem
    Mn     0.4212945768   -0.9614129522    0.3976965928
     C     3.5541692952   -2.9821484732   -0.9199186401
     C     3.9958269018   -1.7943461310   -0.3216726142
     P     2.7965687262   -0.4131635889   -0.0908248912
     C     3.4909583200    0.5481088549    1.3236883802
     C     3.0950888221    0.2002485161    2.6250630645
     C     3.6149579420    0.8815886988    3.7256918114
     C     4.5316218398    1.9176106137    3.5421772823
     C     4.9316018093    2.2690053293    2.2518641117
     C     4.4158736768    1.5891690675    1.1474802009
     C     3.0858366423    0.6740629068   -1.5594651382
     C     2.5405436894    1.9704249737   -1.5735456764
     C     2.7156647384    2.7969799088   -2.6837404349
     C     3.4207368249    2.3385378992   -3.7998735614
     C     3.9529371014    1.0491070336   -3.7981049629
     C     3.7907302652    0.2216983894   -2.6847620531
     C     5.3411249415   -1.6816242118    0.0629550956
     C     6.2252602365   -2.7381790364   -0.1541690605
     C     5.7792433338   -3.9152619755   -0.7594834059
     C     4.4432858460   -4.0343560731   -1.1434134719
     H     2.5138132137   -3.0926947641   -1.2041379957
     H     2.3834742652   -0.6051688777    2.7835366382
     H     3.2944414293    0.6043231844    4.7259679163
     H     4.9303944306    2.4517394364    4.4004287536
     H     5.6441108712    3.0757065463    2.1012642122
     H     4.7289520087    1.8763999002    0.1488950216
     H     1.9731482227    2.3305504810   -0.7205418411
     H     2.2964383997    3.7995166710   -2.6747091655
     H     3.5553348213    2.9835536276   -4.6641106186
     H     4.5020876657    0.6831312086   -4.6615152664
     H     4.2179574876   -0.7755558884   -2.6945247418
     H     5.6977895415   -0.7738035165    0.5389757962
     H     7.2630794467   -2.6421365688    0.1536016579
     H     6.4698848694   -4.7380450034   -0.9243402531
     H     4.0822971286   -4.9482372031   -1.6066301470
     C    -0.4200240835    0.4053087046   -3.1226118277
     C    -1.2943988204   -0.6350635739   -2.7789515750
     P    -0.8109725038   -1.8219229331   -1.4539371709
     C    -2.4113361762   -2.5164104225   -0.8584873935
     C    -3.0626567154   -1.8797859114    0.2095397229
     C    -4.2868686758   -2.3601781224    0.6743301147
     C    -4.8734969039   -3.4786674558    0.0807274487
     C    -4.2334452190   -4.1156051695   -0.9836916042
     C    -3.0083515719   -3.6394786365   -1.4525978107
     C    -0.0253543855   -3.2169437518   -2.3793617177
     C     0.2713780958   -4.4111949071   -1.6993082631
     C     0.8603539318   -5.4798818288   -2.3750235655
     C     1.1737710163   -5.3687740971   -3.7322375816
     C     0.8932505174   -4.1826843584   -4.4104355770
     C     0.2945506203   -3.1126021264   -3.7414503665
     C    -2.5043189282   -0.7698243664   -3.4774331503
     C    -2.8270305611    0.1180265075   -4.5036765604
     C    -1.9468938873    1.1465824869   -4.8453652643
     C    -0.7432120877    1.2876618324   -4.1539281213
     H     0.5088753102    0.5380697424   -2.5805646214
     H    -2.6149981116   -1.0095425878    0.6804525381
     H    -4.7758014798   -1.8609126894    1.5059246854
     H    -5.8243809162   -3.8550702572    0.4480923765
     H    -4.6844996939   -4.9874726253   -1.4498312458
     H    -2.5166359266   -4.1464520542   -2.2767107197
     H     0.0499659250   -4.5014679233   -0.6402056928
     H     1.0733850199   -6.3995379684   -1.8367310557
     H     1.6325484278   -6.2025536847   -4.2570238709
     H     1.1329611962   -4.0868933188   -5.4660086275
     H     0.0695288245   -2.2032482623   -4.2883813157
     H    -3.1989324065   -1.5613336341   -3.2160804388
     H    -3.7698467495    0.0072786127   -5.0325164023
     H    -2.2025994385    1.8389856416   -5.6429928988
     H    -0.0540889728    2.0892495551   -4.4031606776
     I    -0.6574905553    1.4266216828    0.8169512006
     I     0.5941175651   -3.0770085508    2.0021479858
