13
-1.8124541538517688e+03 frame 51   xyz file generated by TeraChem
    Fe     0.2342892628   -0.3773396318   -0.2728229429
     S     2.5116911150   -0.6652862911   -0.6300847916
     C     2.4792722421    0.6712300686    0.4127016771
     N     2.2807918079    1.5642719794    1.1486644219
     S    -1.2706555377   -1.9230500018   -1.6326900671
     H    -1.1203289204   -1.4141394323   -2.8749705426
     H    -2.5081319669   -1.4108749844   -1.4556427972
     S    -0.7675897819    1.9660929630   -0.5093283928
     H    -0.1168155100    2.3456955540   -1.6314007833
     H     0.1637887475    2.5023007608    0.3164128803
     S    -0.2696377792   -0.9377411243    2.1570824743
     H     0.3856873698   -2.1112869983    2.2868731618
     H     0.7296255925   -0.1982515398    2.6878782161
