16
-1.8075640600331301e+03 frame 46   xyz file generated by TeraChem
    Cr     0.1220210069    0.2757941680    0.3559137652
     C     4.8756161273   -0.1947775649   -0.1855931768
     C     4.0172613626   -0.3321503687   -1.2854294808
     C     2.6481422832   -0.2294374004   -1.0837640017
     N     2.1180288310    0.0062150140    0.1360166148
     C     2.9429883803    0.1439472425    1.1968968015
     C     4.3215470860    0.0461141124    1.0796229386
     C     6.2965152883   -0.2999913478   -0.3514582616
     H     4.4071064522   -0.5204196223   -2.2788825050
     H     1.9470957796   -0.3468053817   -1.9014355936
     H     2.4609622457    0.3262259166    2.1495525343
     H     4.9507964599    0.1574391798    1.9547852731
     N     7.4477675389   -0.3863439492   -0.4850729755
    Cl    -0.5344161170   -1.2101008682   -1.1330721194
    Cl    -0.1986373332    2.3889350224    0.0033379863
    Cl    -0.2352864786   -0.0747591319    2.4872977247
