29
-8.2467220236331877e+02 frame 42   xyz file generated by TeraChem
    Fe    -0.2609007764    0.0075867600    0.3350032347
     O     1.6893753335    0.3725815847    0.1576943555
     C     2.6440508339   -0.0272805877    1.1042305003
     C     3.8711925804    0.0526746898    0.5503067675
     C     3.7056509623    0.5118956003   -0.8061359290
     C     2.3842263978    0.6884826243   -1.0139148235
     H     2.2458041469   -0.2963273814    2.0688747278
     H     4.8032180362   -0.1782160053    1.0466359283
     H     1.7799124718    1.0225336741   -1.8402292886
     H     4.4895508478    0.6925859010   -1.5282593866
     O    -0.3868428353   -1.2316162425   -1.2336853739
     C    -0.4445190923   -2.6189467577   -1.0508903913
     C    -0.3975176586   -3.2245596633   -2.2559512388
     C    -0.3048664220   -2.1911476452   -3.2556206702
     C    -0.2970109231   -1.0056798949   -2.6105487138
     H    -0.5303965341   -2.9499767461   -0.0280809112
     H    -0.4326533888   -4.2909879745   -2.4284837731
     H    -0.2611683114    0.0289562399   -2.9065335172
     H    -0.2567740870   -2.3288613549   -4.3267743987
     O    -0.7646802053    1.6363495094   -0.7539907639
     C    -2.0488709532    1.7727374342   -1.2977263415
     C    -2.4000764742    3.0756352559   -1.2832959040
     C    -1.3084173572    3.8099554355   -0.6935961606
     C    -0.3466650909    2.9182124564   -0.3765100412
     H    -2.5153134437    0.8576895470   -1.6269385780
     H    -3.3296116477    3.4844730941   -1.6539922588
     H     0.6318853871    2.9715070536    0.0727415003
     H    -1.2578017390    4.8781156137   -0.5356189891
     I    -1.0329729931   -0.6394929049    2.6290561554
