25
-6.5333522498009006e+02 frame 17   xyz file generated by TeraChem
    Fe     0.0035357206    0.0098939470   -0.0163779237
     C     2.0495206902    0.0931845795    0.0156227793
     N     3.2074208030    0.1408959723    0.0370339360
     C     4.6355379963    0.1982026401    0.0648848397
     H     5.0273900151   -0.6290366265   -0.5387966787
     H     4.9653986979    0.1034925378    1.1062746260
     H     4.9523582869    1.1615004332   -0.3522712754
     C    -0.6012224944   -1.3593300637   -1.4106218300
     N    -0.9413883356   -2.1376722527   -2.1992908747
     C    -1.3614758436   -3.0986343621   -3.1710384961
     H    -0.6135245634   -3.8993560284   -3.2115573487
     H    -1.4404417303   -2.5969822278   -4.1428957909
     H    -2.3357096735   -3.4977094822   -2.8645677375
     C    -0.7665529937    1.8513519912   -0.4686803383
     N    -1.2026030876    2.8941661215   -0.7255151989
     C    -1.7378040733    4.1807887054   -1.0433505261
     H    -1.4349389609    4.4395102557   -2.0650705514
     H    -1.3369768857    4.9091317352   -0.3282956855
     H    -2.8306047302    4.1303072938   -0.9681571409
     C    -0.6766131998   -0.5652938438    1.8291540610
     N    -1.0632120806   -0.8888951769    2.8728263864
     C    -1.5383932011   -1.2875119991    4.1608907479
     H    -1.3572927756   -0.4674779273    4.8659664720
     H    -0.9915639596   -2.1865701970    4.4691478351
     H    -2.6117603054   -1.4981797381    4.0845424084
