39
-1.8545289093272659e+03 frame 122   xyz file generated by TeraChem
    Co     0.8257593225    0.5422034171    0.1532832758
     S     2.3967685234    1.1234194658   -1.4622559504
     C     1.2649820286    1.2284159919   -2.7041327849
     N     0.4571225891    1.3122032753   -3.5482152470
     S     1.8678638848   -1.4919105788   -0.2767705434
     C     0.5985744529   -2.0787654087   -1.2145762640
     N    -0.3043406639   -2.4710769307   -1.8493047727
     C     0.0838178379    2.2935174421    0.2670320014
     N    -0.3725639480    3.3589869159    0.3027608831
     C    -2.0329144888    4.7867244354    1.4178625608
     C    -3.3605670309    4.4558746764    1.1214418954
     C    -4.3419951683    4.5629232566    2.1066969654
     C    -4.0003776986    5.0009276926    3.3883837448
     C    -2.6768924487    5.3333668906    3.6858424499
     C    -1.6932140633    5.2261678022    2.7025944745
     H    -3.6312954062    4.1308621987    0.1194139432
     H    -5.3730864804    4.3178590298    1.8701872725
     H    -2.4124459291    5.6868931755    4.6778787550
     H    -0.6655729094    5.4988141854    2.9317456332
     H    -4.7673737532    5.0944470397    4.1515281228
     C    -0.9679674184    4.6793318475    0.3475165205
     H    -0.1446152917    5.3803260804    0.5153335744
     H    -1.3706740694    4.8620494620   -0.6537811170
     C    -0.4068983481   -0.2034844444    1.3996452372
     N    -1.1565930736   -0.6920437115    2.1374019150
     C    -1.4747229047   -2.7337913362    3.4581918244
     C    -1.7413542212   -3.8768059909    2.6951727398
     C    -1.2097449375   -5.1083489816    3.0771796707
     C    -0.4119134474   -5.2005564460    4.2199745587
     C    -0.1466832213   -4.0616819879    4.9837663726
     C    -0.6764890385   -2.8286720939    4.6041136827
     H    -2.3699588454   -3.8082081720    1.8104188316
     H    -1.4245482662   -5.9947074594    2.4880923539
     H     0.4652120279   -4.1344001512    5.8777587049
     H    -0.4782930821   -1.9443144495    5.2054743530
     H    -0.0034909905   -6.1611291435    4.5195121989
     C    -2.0454377308   -1.3949572544    3.0419690617
     H    -2.2037422318   -0.7307416625    3.8969176854
     H    -2.9962654201   -1.5004011838    2.5102691615
