9
-2.0477479702261187e+03 frame 43   xyz file generated by TeraChem
    Co    -0.0194926932    0.4477758603    0.3080369278
     S     2.3216330426    0.3071474187   -0.6634419716
     C     2.8242311472   -1.2874044128   -0.5135548317
     N     3.2281156234   -2.3850737546   -0.4231571652
     S    -0.3661123084   -0.0777119232   -2.1607358453
     C    -0.3623983491   -1.7433681978   -2.3651413869
     N    -0.3799607815   -2.9002712021   -2.5603386709
    Cl    -0.3757860160    2.6755486288    0.1040879830
    Cl    -0.6883175257   -0.9944779711    1.8758949280
