38
-9.8235550443960562e+02 frame 48   xyz file generated by TeraChem
    Fe    -0.4874948360   -0.5661712193    0.1956735149
     C     2.1910385766    0.5242720327   -0.2217663706
     O     1.3885582052   -0.4003088394   -0.1022057421
     H     3.2589207643    0.2921507274   -0.3030492240
     H     1.8669305552    1.5723164316   -0.2553894194
     C    -1.5045929195   -3.2533839240   -3.6090738703
     C    -0.2210234784   -3.2680378258   -3.0607829918
     C     0.0758121936   -2.4029624260   -2.0157243508
     N    -0.8352525943   -1.5373108883   -1.5055923295
     C    -2.0795466962   -1.5276458009   -2.0451123256
     C    -2.4489148280   -2.3666598140   -3.0880745125
     H    -1.7642273119   -3.9194910257   -4.4260987752
     H     0.5448557912   -3.9400730403   -3.4328204861
     H     1.0616623471   -2.3885122283   -1.5639746225
     H    -2.7874663110   -0.8214540740   -1.6221820208
     H    -3.4587468674   -2.3208866354   -3.4814089362
     C    -2.4696501069    3.4775613755   -1.2568902749
     C    -1.4819383779    2.8580275759   -2.0265102543
     C    -0.9026491541    1.6839070513   -1.5636496302
     N    -1.2477478946    1.1267474252   -0.3783226030
     C    -2.2030693755    1.7303084735    0.3689128368
     C    -2.8377897948    2.8969078530   -0.0425679275
     H    -2.9437852663    4.3922825833   -1.5991825995
     H    -1.1676199441    3.2691223288   -2.9799692253
     H    -0.1579676630    1.1549321799   -2.1475163312
     H    -2.4522981762    1.2613046679    1.3148010677
     H    -3.6030143449    3.3386655732    0.5868354798
     C     0.0269908395    0.0155111752    4.9116767011
     C    -0.3681536149   -1.1854980702    4.3203208849
     C    -0.5215857626   -1.2297990386    2.9399875316
     N    -0.3076611675   -0.1546540196    2.1443683224
     C     0.0785179676    1.0040509151    2.7244095029
     C     0.2542443514    1.1272199955    4.0965611290
     H     0.1569151843    0.0838768359    5.9873736935
     H    -0.5546542595   -2.0751589829    4.9120339207
     H    -0.8240983385   -2.1543202367    2.4491477297
     H     0.2351970839    1.8460057512    2.0587163217
     H     0.5634192781    2.0787911362    4.5157642901
