53
-1.4420939975417682e+03 frame 109   xyz file generated by TeraChem
    Co    -0.0111263252    0.0121467774    0.0261219652
     C     1.9842719406    0.3474941229   -0.2723600738
     N     3.1212108241    0.5398349439   -0.4535789172
     C     4.4663916484    0.7621433628   -0.6717290321
     C     4.9331037694    2.0924485710   -0.7593682347
     C     6.2838724825    2.3029435956   -0.9817365526
     C     7.1567244922    1.2049374925   -1.1143531780
     C     6.6752086704   -0.1160503212   -1.0231714063
     C     5.3281899632   -0.3496733051   -0.8014515471
     H     4.2415505062    2.9212440392   -0.6536284104
     H     6.6699615835    3.3142836801   -1.0542518847
     H     7.3600101222   -0.9511576184   -1.1272238904
     H     4.9333692555   -1.3572038358   -0.7275866195
     H     8.2142027687    1.3791814741   -1.2886166408
     C    -0.6699686092   -1.3752014732   -1.3230198433
     N    -1.0486800744   -2.1747451085   -2.0843246053
     C    -1.4993541528   -3.1219741357   -2.9823988921
     C    -2.2563576438   -4.2122361161   -2.4992860342
     C    -2.7069965356   -5.1552822565   -3.4081479937
     C    -2.4081449772   -5.0143942175   -4.7775812273
     C    -1.6510695653   -3.9213679340   -5.2431807298
     C    -1.1899479874   -2.9665566731   -4.3517603087
     H    -2.4737787669   -4.2987476868   -1.4402580980
     H    -3.2907396656   -6.0028043705   -3.0646198469
     H    -1.4287046505   -3.8269737346   -6.3009056458
     H    -0.6051399614   -2.1165776441   -4.6863331567
     H    -2.7654399218   -5.7581960866   -5.4833312594
     C    -1.0345754988    1.7621697666   -0.2386757360
     N    -1.6292055130    2.7549896695   -0.3904933318
     C    -2.3373859350    3.9269449705   -0.5684084966
     C    -3.1673672174    4.0557762265   -1.7042427467
     C    -3.8772521031    5.2332029152   -1.8710842087
     C    -3.7621311226    6.2671403129   -0.9210048161
     C    -2.9286566670    6.1231942232    0.2058891096
     C    -2.2095201318    4.9542556280    0.3926272694
     H    -3.2392085141    3.2451577931   -2.4211431684
     H    -4.5228858980    5.3589453834   -2.7339096340
     H    -2.8502721598    6.9287874114    0.9283806389
     H    -1.5614733780    4.8200053500    1.2519655015
     H    -4.3226136665    7.1867710255   -1.0591482455
     C    -0.3061154741   -0.6946965671    1.9223367584
     N    -0.4648527944   -1.0923942524    3.0081287413
     C    -0.6512487529   -1.5610720703    4.2934118928
     C    -1.9623239442   -1.6164310138    4.8162382347
     C    -2.1367232561   -2.0883124011    6.1068066844
     C    -1.0223958653   -2.4987679015    6.8649329288
     C     0.2788225929   -2.4371921864    6.3284839670
     C     0.4764037093   -1.9685806687    5.0401944667
     H    -2.8044859587   -1.2946533519    4.2132051364
     H    -3.1325906769   -2.1413683678    6.5340640312
     H     1.1270708186   -2.7567912396    6.9246481733
     H     1.4682332891   -1.9119185044    4.6050779812
     H    -1.1683505492   -2.8675842783    7.8756704872
