37
-1.0229829952238738e+03 frame 176   xyz file generated by TeraChem
    Mn     0.1201221720    0.0009327754    0.0212914803
     O     2.1983028076   -0.3731026724    0.0991553707
     C     2.9489331473   -0.6228888937    1.2772617274
     C     4.2597494038   -0.7651422346    0.9568425042
     C     4.3819046653   -0.6092643916   -0.4620778281
     C     3.1423212038   -0.3747608283   -0.9613846545
     H     2.3872781833   -0.6687936852    2.1990514347
     H     5.0616128354   -0.9640659632    1.6579710853
     H     2.7427831149   -0.1979175628   -1.9492898625
     H     5.2944006417   -0.6666772634   -1.0437026797
     O    -0.5489527014   -1.1253080029   -1.6653218273
     C    -0.1468028284   -2.4276148329   -2.0540607680
     C    -0.7737934356   -2.7682819199   -3.2097972161
     C    -1.6065053783   -1.6690345674   -3.5938258379
     C    -1.4579636744   -0.6932064712   -2.6604343301
     H     0.5586673192   -2.9238531296   -1.4029609540
     H    -0.6568624206   -3.7079465131   -3.7366871123
     H    -1.8714882556    0.2966292110   -2.5327227541
     H    -2.2433533930   -1.6126484282   -4.4686512454
     O    -0.5737346487    1.9972952086   -0.2357875203
     C    -1.8688244755    2.4540318304    0.1265303272
     C    -1.9817093772    3.7727407589   -0.1738320140
     C    -0.7396019116    4.1985275857   -0.7475090985
     C     0.0902264861    3.1255514270   -0.7788790620
     H    -2.5312741842    1.7160402337    0.5548276107
     H    -2.8605735356    4.3842031366   -0.0066704912
     H     1.1066576871    2.9640848962   -1.1071249879
     H    -0.4947751917    5.1946344274   -1.0967377526
     O    -0.8139789870   -0.5613766975    1.8384631992
     C    -0.9800174777    0.2527162643    2.9908187691
     C    -1.7161249249   -0.4172984371    3.9122377873
     C    -2.0455414354   -1.6996407367    3.3621393834
     C    -1.4988525282   -1.7707887724    2.1234096786
     H    -0.4998080559    1.2202693402    2.9631735196
     H    -1.9942469913   -0.0420688105    4.8900258814
     H    -1.4766249866   -2.5241439797    1.3495113805
     H    -2.6232380320   -2.4808289620    3.8417961663
