49
-2.4025350537550967e+03 frame 67   xyz file generated by TeraChem
    Fe    -0.0559875615    0.0031910517    0.0171591137
     C     4.7024788533    0.8109674584    0.7305995273
     C     3.9493586686    1.6522363881   -0.1074121019
     C     2.6038825239    1.3792573763   -0.2934284483
     N     1.9752198020    0.3331724705    0.3006238507
     C     2.7072175086   -0.4744353461    1.1116610054
     C     4.0571012479   -0.2752010132    1.3496529753
     C     6.0935733839    1.0533576935    0.9493741637
     H     4.4094727260    2.5017662752   -0.6001451286
     H     1.9972525207    2.0151160477   -0.9303245577
     H     2.1836488677   -1.3023504060    1.5803576419
     H     4.6028540520   -0.9456894529    2.0045899299
     N     7.2259873286    1.2493111514    1.1270112972
     C    -0.5589053533   -3.4570823430   -3.4219005466
     C     0.6888401509   -3.2334780321   -2.7982442014
     C     0.7977270468   -2.2431533039   -1.8389167922
     N    -0.2443931432   -1.4596251164   -1.4548706646
     C    -1.4452169969   -1.6718121086   -2.0600759744
     C    -1.6444133761   -2.6391936098   -3.0245210249
     S    -0.8521179325   -4.6622654153   -4.6445591637
     H     1.5658552721   -3.8190764223   -3.0541917612
     H     1.7518871599   -2.0588476483   -1.3560615588
     H    -2.2666582465   -1.0315366877   -1.7519831678
     H    -2.6281440402   -2.7572660246   -3.4683076353
     H     0.4008105181   -5.1650910637   -4.7002835908
     C    -2.2976561529    4.0823734492   -1.5246695709
     C    -1.5382268861    3.2777251280   -2.4049809619
     C    -0.9448077187    2.1259413980   -1.9232404769
     N    -1.0449923478    1.7190232347   -0.6289217889
     C    -1.7814885783    2.4896559254    0.2147380309
     C    -2.4117779105    3.6532988357   -0.1813321261
     S    -3.1043734666    5.5575446881   -1.9782767138
     H    -1.4128303149    3.5405076002   -3.4503804226
     H    -0.3659649169    1.4931955104   -2.5901073446
     H    -1.8674894519    2.1487668850    1.2412681405
     H    -2.9837953036    4.2241874195    0.5435038927
     H    -2.7244599065    5.5761489005   -3.2749493958
     C    -1.8818177559   -1.3841789660    4.3372880672
     C    -2.1725359065   -2.1095475953    3.1599536647
     C    -1.6602663067   -1.6735806317    1.9520822551
     N    -0.8788596000   -0.5679325677    1.8292597060
     C    -0.5960876722    0.1291750408    2.9652383369
     C    -1.0664913391   -0.2335604950    4.2105972441
     S    -2.4520024215   -1.8064451766    5.9278083344
     H    -2.7918763216   -3.0002544978    3.1806704161
     H    -1.8777364325   -2.2208846171    1.0403695855
     H     0.0415312046    1.0020825260    2.8573654336
     H    -0.8003954198    0.3636402189    5.0772711719
     H    -3.1548817067   -2.9052721170    5.5761657101
