50
-1.2473537254277917e+03 frame 96   xyz file generated by TeraChem
    Co     0.0953620299    0.3221694562   -0.6995603101
     C     2.1375184770    0.4699552951   -0.5811085806
     N     3.2881069811    0.5416089178   -0.4457363299
     C     5.2387204451   -0.5103265239    0.6215655435
     C     5.3180163878   -0.3612434915    2.0064306153
     C     5.8214531447   -1.4076599940    2.8022119996
     C     6.2465037421   -2.6022841589    2.2115964064
     C     6.1714285313   -2.7532016592    0.8295431910
     C     5.6680154575   -1.7089380812    0.0328632894
     H     5.0047521847    0.5660428409    2.4789712523
     H     5.8866321060   -1.2768912706    3.8778365031
     H     6.5087443100   -3.6708201482    0.3580883631
     H     5.6280738964   -1.8319262030   -1.0465886503
     H     6.6410989958   -3.4029056983    2.8288486730
     C     4.7185998821    0.6214487372   -0.2435028704
     H     5.1749594362    0.6155272981   -1.2382367946
     H     4.9113193742    1.5985249919    0.2101426421
     C    -0.4937349357   -1.0569355250   -2.0969162840
     N    -0.8447148438   -1.8852377899   -2.8303084381
     C    -2.7794396363   -3.2240010560   -3.5495245279
     C    -3.2358384018   -4.0086424953   -2.4783576056
     C    -4.6051493582   -4.2918758281   -2.3372914294
     C    -5.5188004170   -3.8002986769   -3.2670540117
     C    -5.0671270156   -3.0236512368   -4.3382839537
     C    -3.6964926844   -2.7334297852   -4.4779353287
     H    -2.5288844414   -4.4126555806   -1.7579828133
     H    -4.9420440849   -4.9058092112   -1.5080841724
     H    -5.7705735735   -2.6462547545   -5.0739364139
     H    -3.3592868826   -2.1379775281   -5.3222677432
     H    -6.5755425699   -4.0263042573   -3.1672220207
     C    -1.2986091335   -2.9384618655   -3.7119779004
     H    -1.0590875987   -2.6198876868   -4.7306798830
     H    -0.6866777087   -3.8163293236   -3.4797765886
     C    -0.8076425138    2.1366145945   -1.0010886638
     N    -1.3557910500    3.1522052783   -1.1245285063
     C    -2.2316673727    5.1085260524    0.0843666948
     C    -3.2841790684    4.7562101823    0.9379076214
     C    -3.4563566706    5.4225124557    2.1653916479
     C    -2.5818406185    6.4434845060    2.5380370628
     C    -1.5344265821    6.8000110812    1.6880571979
     C    -1.3575685154    6.1311815533    0.4611270970
     H    -3.9839903110    3.9753923156    0.6510481663
     H    -4.2817152345    5.1443653718    2.8131154723
     H    -0.8538245962    7.5996451854    1.9630696185
     H    -0.5443623832    6.4271984570   -0.1964653608
     H    -2.7207235027    6.9640689944    3.4800258237
     C    -2.0608004594    4.4092064870   -1.2504564282
     H    -1.4886564143    5.0189320000   -1.9559584941
     H    -3.0254296655    4.1747297633   -1.7121352453
     I    -0.7595304402   -0.6082710873    1.5867655126
