25
-4.8395609807458260e+02 frame 47   xyz file generated by TeraChem
    Mn     0.1410210436   -0.1480111481   -0.1361356923
     N    -1.7050848639   -0.6316258581   -0.9224934505
     N    -0.0028516360   -2.0360310367    0.6988435444
     C    -1.4230208401   -2.5799811401    0.5275359593
     C    -1.9120192385   -2.1441780023   -0.8367062663
     H    -2.9730659271   -2.3741687609   -0.9897169201
     H    -1.3433238189   -2.6001638727   -1.6534639158
     H    -2.0326259002   -2.1737751812    1.3412999370
     H    -1.4052948632   -3.6712421068    0.6293799694
     H    -2.4500448114   -0.1603035818   -0.3839782870
     H    -1.8597320434   -0.3226930297   -1.8935686122
     H     0.6618466942   -2.6736521011    0.2326492057
     H     0.2577792675   -2.0778462441    1.6951558099
     N     2.0050757714    0.3035705491    0.6380979656
     N     0.3114658287    1.7316861148   -0.9736409307
     C     1.4845058933    2.4833999715   -0.3415243656
     C     2.6018337119    1.4859977971   -0.1251621732
     H     3.4276650065    1.9139408427    0.4554458087
     H     3.0107596634    1.0987841632   -1.0640148533
     H     1.1248018949    2.9186770403    0.5962601614
     H     1.7847405655    3.3032642770   -1.0041912901
     H     1.9111413906    0.5546149007    1.6355164928
     H     2.6762113442   -0.4784701261    0.6346556190
     H     0.4724054958    1.6388008248   -1.9895108197
     H    -0.5390143542    2.3105939036   -0.9056545141
