18
-5.6215742089177593e+02 frame 52   xyz file generated by TeraChem
    Cr    -0.0186409615    0.1251286250    0.3618542493
     C     4.7342978202   -0.4078328975   -0.4564774625
     C     4.1261557384    0.8466208202   -0.5134625359
     C     2.7514974594    0.9378240717   -0.3238687558
     N     1.9920464682   -0.1521654594   -0.0941777846
     C     2.5748759412   -1.3648100395   -0.0433441186
     C     3.9444655586   -1.5327531191   -0.2164422103
     H     5.8067573445   -0.5077782107   -0.5968613577
     H     4.7037601871    1.7456079871   -0.7015360633
     H     2.1985663605    1.8718179974   -0.3495256887
     H     1.9096245386   -2.2037101677    0.1378313177
     H     4.3772102627   -2.5262973112   -0.1634844467
     O    -0.5914352350   -1.3314420775   -0.5671890468
     H    -0.0566645151   -1.7196155896   -1.2758317463
     O    -0.1465076349    1.9177309682   -0.0599762378
     H    -0.4461633344    2.5051521340    0.6499863929
     O    -0.2882056154    0.3095549218    2.1600162759
     H    -0.5462625195    1.1797477677    2.5001060135
