22
-1.0122051661778285e+03 frame 156   xyz file generated by TeraChem
    Fe    -0.1648784824   -0.4976063985   -0.1607411072
     S     1.5298388944   -2.2120440999   -0.2748409435
     C     2.1378682735   -2.3818420447    1.2503877606
     N     2.5868273964   -2.5184565637    2.3361095348
     C    -0.5999581284   -1.0381436107   -3.1842670539
     N    -0.4184059261   -0.8482806271   -2.0548890674
     C    -0.8250188474   -1.2827944074   -4.5969078960
     H     0.1060786412   -1.6188013228   -5.0677146709
     H    -1.1643387883   -0.3615333865   -5.0838615595
     H    -1.5902286123   -2.0588067367   -4.7171502639
     C    -2.3538892185    1.6829127067   -0.1944401703
     N    -1.5330946110    0.8652058768   -0.1777218728
     C    -3.3830555958    2.7076559470   -0.2114565043
     H    -3.6406366407    2.9607535228   -1.2457153841
     H    -3.0184525253    3.6055518861    0.3002959840
     H    -4.2775714609    2.3380634738    0.3032138703
     C     0.2946462925   -0.0206003842    2.8609383780
     N     0.1161109831   -0.1902479139    1.7281044902
     C     0.5308640176    0.1791034537    4.2784259530
     H     1.2282121322   -0.5834945228    4.6442494651
     H    -0.4151355178    0.1004426715    4.8263707741
     H     0.9623834294    1.1733159685    4.4434451742
