35
-9.6808649088684547e+02 frame 38   xyz file generated by TeraChem
    Fe     0.0109955852   -0.2338969022   -0.1042660560
     C     4.8128829184    0.2717527603    0.7444726557
     C     4.3873005408    0.3724522237   -0.5809779113
     C     3.0343042885    0.2226747404   -0.8609070237
     N     2.1167342414   -0.0200901088    0.0967277180
     C     2.5323870018   -0.1180087041    1.3797438152
     C     3.8679053868    0.0235528017    1.7401003341
     H     5.8630055384    0.3852139310    0.9961007324
     H     5.0878548507    0.5655222169   -1.3863641612
     H     2.6594846280    0.2952074858   -1.8777903699
     H     1.7603264711   -0.3103707222    2.1193131654
     H     4.1542101575   -0.0617910149    2.7828008008
     C    -1.3994611234   -3.0125810930   -3.8746779142
     C    -0.1533370667   -3.2246136210   -3.2831185735
     C     0.2614746229   -2.3655083468   -2.2732098716
     N    -0.4890382880   -1.3276107753   -1.8457618269
     C    -1.6929375028   -1.1269914855   -2.4221507529
     C    -2.1822874936   -1.9452430434   -3.4340249857
     H    -1.7544517004   -3.6695013854   -4.6628942761
     H     0.4869661931   -4.0441868768   -3.5909790332
     H     1.2196562524   -2.5009404547   -1.7796984867
     H    -2.2682216027   -0.2862411773   -2.0476938733
     H    -3.1586621520   -1.7463759235   -3.8626066153
     C    -1.9445999826    4.2623963161   -0.8109304152
     C    -1.2242322381    3.6839736893   -1.8572377863
     C    -0.6956866491    2.4103433153   -1.6796514537
     N    -0.8484887229    1.7113656867   -0.5380913436
     C    -1.5456856190    2.2735018902    0.4721899380
     C    -2.1076277894    3.5424312223    0.3721378481
     H    -2.3707150361    5.2554447524   -0.9172562245
     H    -1.0726175838    4.2069158141   -2.7956636651
     H    -0.1333576924    1.9241555604   -2.4726416691
     H    -1.6385877280    1.6676108729    1.3674138169
     H    -2.6610327790    3.9518270639    1.2105923348
     F    -0.7253799552   -0.4476126044    1.4941852646
