50
-1.2312297500341958e+03 frame 96   xyz file generated by TeraChem
    Fe    -0.2380159887    0.1025932129   -0.4058962132
     C     1.9286520957    0.3447048425   -0.0230625770
     N     3.0535325141    0.4143091723    0.2781082860
     C     5.3902107873    1.3197656387    0.2183781679
     C     5.1018018462    2.2575412139   -0.7876966201
     C     6.1106982119    3.0911081067   -1.2360955324
     C     7.4418112741    3.0020676925   -0.6769607827
     C     7.7343519840    2.0645351533    0.3333666499
     C     6.7295028130    1.2341720098    0.7786185107
     H     4.1055033284    2.3284152859   -1.2099821172
     H     5.9186457408    3.8234145368   -2.0150164466
     H     8.7343765681    2.0011546563    0.7505481187
     H     6.9317693870    0.5029979912    1.5578737431
     H     8.2155168534    3.6700861624   -1.0475230112
     C     4.3883597453    0.3488645399    0.7910491995
     H     4.3303469770    0.4911068741    1.8813307659
     H     4.7519568422   -0.6788405871    0.6360585389
     C    -1.0661457908   -3.3263281035   -3.7695583445
     C     0.1832842000   -2.7024723901   -3.7134588971
     C     0.4107632090   -1.7430642986   -2.7365951341
     N    -0.5344951178   -1.3819580284   -1.8347342651
     C    -1.7444539961   -1.9930678628   -1.8949415552
     C    -2.0450875861   -2.9628433070   -2.8418918513
     H    -1.2720318741   -4.0825414480   -4.5211584180
     H     0.9705739477   -2.9571457601   -4.4150048193
     H     1.3696002924   -1.2385474875   -2.6642147771
     H    -2.4805194084   -1.6931371977   -1.1547848775
     H    -3.0276692863   -3.4226236722   -2.8486713885
     C    -2.1146402378    4.3007822376   -1.9086737649
     C    -1.9726786141    3.2211977252   -2.7837457128
     C    -1.3871597635    2.0511652567   -2.3182887938
     N    -0.9482403744    1.9192464666   -1.0411807809
     C    -1.0831861500    2.9740486012   -0.1977222096
     C    -1.6582423492    4.1729430602   -0.5930507548
     H    -2.5743951989    5.2255562092   -2.2444641372
     H    -2.3146176976    3.2800819186   -3.8116327187
     H    -1.2660547123    1.1898814562   -2.9683642854
     H    -0.7200971642    2.8356674288    0.8170754142
     H    -1.7511137741    4.9874225198    0.1175615288
     C    -2.3073204116   -1.8152659955    3.5471792635
     C    -1.1912795152   -2.4263919200    2.9688513745
     C    -0.6133774055   -1.8434596596    1.8503776340
     N    -1.0891556344   -0.7004265031    1.2957971360
     C    -2.1761272294   -0.1158030699    1.8595403077
     C    -2.8065885030   -0.6402377533    2.9798853130
     H    -2.7822268399   -2.2502405864    4.4215171940
     H    -0.7778662358   -3.3436572783    3.3744034705
     H     0.2458247736   -2.2976747602    1.3653097986
     H    -2.5422912338    0.7904493780    1.3866013058
     H    -3.6742821553   -0.1383717175    3.3947398920
