115
-3.8588750658490821e+03 frame 60   xyz file generated by TeraChem
    Mn     0.0196205110    0.1272843045   -0.3096289411
     C     1.7235790090   -2.9597197430    0.8246762276
     C     2.4262817691   -1.9262683552    1.4667353773
     P     2.4049544453   -0.2537618311    0.7033402753
     C     2.9363839396    0.8929673736    2.0437331282
     C     2.1828449713    0.9709447893    3.2285542613
     C     2.5770734434    1.8215927645    4.2599342995
     C     3.7225129540    2.6104209965    4.1214298770
     C     4.4733470139    2.5411548291    2.9476289490
     C     4.0852077171    1.6876460992    1.9115818258
     C     3.7835164531   -0.2491252865   -0.5119667261
     C     3.8036372055    0.7409262443   -1.5091123364
     C     4.8634898828    0.8119165448   -2.4136355175
     C     5.9087026845   -0.1113672472   -2.3376818288
     C     5.8912264851   -1.1045918259   -1.3554212204
     C     4.8371591368   -1.1756033377   -0.4433617114
     C     3.1342935584   -2.2119455113    2.6447034422
     C     3.1370204124   -3.5087468720    3.1631483714
     C     2.4330870735   -4.5284065280    2.5190351847
     C     1.7246698815   -4.2526242004    1.3471174692
     H     1.1806654403   -2.7625527771   -0.0968397257
     H     1.3066031906    0.3443723592    3.3636100307
     H     1.9963081573    1.8616850008    5.1769174653
     H     4.0330805730    3.2660143934    4.9295781993
     H     5.3737643839    3.1387839379    2.8387006655
     H     4.6888771300    1.6361326729    1.0119354692
     H     2.9949644262    1.4623902411   -1.5846789609
     H     4.8683294094    1.5857668181   -3.1753484222
     H     6.7349177882   -0.0566916852   -3.0403328307
     H     6.7033772310   -1.8226928151   -1.2921347357
     H     4.8422800446   -1.9470890159    0.3196681564
     H     3.6821958054   -1.4281058023    3.1570252299
     H     3.6937941676   -3.7209208010    4.0710782006
     H     2.4389381548   -5.5345623489    2.9275360078
     H     1.1720291184   -5.0378062131    0.8400192995
     C    -2.2884370732    0.1183837219   -4.0887825939
     C    -2.4761510223   -0.9504970558   -3.1961391600
     P    -1.0524790067   -1.4652265134   -2.1461935533
     C    -1.6458352413   -2.9440238847   -1.2183467052
     C    -2.6495784158   -2.7757614080   -0.2466581182
     C    -3.1346192640   -3.8705081020    0.4688800265
     C    -2.6133186731   -5.1459458791    0.2349007472
     C    -1.6112997866   -5.3209634017   -0.7209053596
     C    -1.1287234373   -4.2288114231   -1.4471999529
     C     0.1769485310   -2.1012627395   -3.3525150559
     C     1.5499259456   -1.9692684404   -3.0961615488
     C     2.4906886898   -2.4841965631   -3.9906010908
     C     2.0659241673   -3.1334502736   -5.1503570085
     C     0.6998904274   -3.2646067279   -5.4170819987
     C    -0.2421149056   -2.7501215135   -4.5276537808
     C    -3.7050317157   -1.6272835563   -3.1895067845
     C    -4.7272828932   -1.2344593458   -4.0568911020
     C    -4.5320734323   -0.1744712344   -4.9414993742
     C    -3.3081069756    0.4989696627   -4.9580344008
     H    -1.3427114263    0.6500573029   -4.1239287507
     H    -3.0737048872   -1.7905458468   -0.0665380717
     H    -3.9270989272   -3.7308299595    1.1987475773
     H    -2.9945880917   -5.9995864629    0.7873443990
     H    -1.2139002127   -6.3125284928   -0.9178689760
     H    -0.3636191375   -4.3847478410   -2.2003744833
     H     1.8997716549   -1.4614181682   -2.2019683107
     H     3.5496818083   -2.3721542607   -3.7792045992
     H     2.7954603706   -3.5340100795   -5.8479836164
     H     0.3668915304   -3.7659076635   -6.3209373244
     H    -1.3002209967   -2.8511683496   -4.7479379949
     H    -3.8687531650   -2.4701225800   -2.5279015966
     H    -5.6714740740   -1.7710201628   -4.0470242327
     H    -5.3255960729    0.1214177135   -5.6212648096
     H    -3.1455028275    1.3205987793   -5.6490711578
     C    -3.1261637610    1.9252084757   -1.0904115134
     C    -2.1251641138    2.6959868292   -1.7026328933
     P    -0.3810854235    2.4547470616   -1.1949185245
     C     0.6678501491    2.9302480016   -2.6250084696
     C     1.0880480642    1.9485817001   -3.5379279791
     C     1.8312777086    2.3028763134   -4.6650494420
     C     2.1707879853    3.6393765381   -4.8863471494
     C     1.7725858465    4.6195626409   -3.9741228294
     C     1.0277812032    4.2709454554   -2.8470280579
     C    -0.0675905732    3.7503140994    0.0729695276
     C     1.2252381565    3.8658391920    0.6134063063
     C     1.4982360225    4.8205399095    1.5907790545
     C     0.4839506101    5.6681120528    2.0448506752
     C    -0.8021442170    5.5604577314    1.5139274134
     C    -1.0823925249    4.6067154244    0.5320729390
     C    -2.4881641438    3.6774116237   -2.6384847092
     C    -3.8325989885    3.8879321014   -2.9441057924
     C    -4.8235212978    3.1239164926   -2.3226708815
     C    -4.4697943757    2.1413532693   -1.3959451104
     H    -2.8575678834    1.1542987844   -0.3718715849
     H     0.8486270610    0.9018035995   -3.3734355604
     H     2.1461379622    1.5348152271   -5.3654062056
     H     2.7468679838    3.9163364317   -5.7642425674
     H     2.0410656746    5.6587672242   -4.1389513948
     H     0.7306466360    5.0423910751   -2.1437154453
     H     2.0274937853    3.2229593078    0.2635015898
     H     2.5017768914    4.9003812458    1.9967136530
     H     0.6979639864    6.4138996225    2.8046042286
     H    -1.5900240123    6.2264181904    1.8535108742
     H    -2.0835324754    4.5468607076    0.1179602325
     H    -1.7265164177    4.2768668187   -3.1271216652
     H    -4.1063690077    4.6510875221   -3.6665786563
     H    -5.8691317905    3.2927733447   -2.5620937694
     H    -5.2379431356    1.5404283879   -0.9184303648
     C    -2.1456894190   -0.1299861963    4.0704688750
     C    -1.6668683262   -1.2708160624    3.4010982194
     C    -1.0733637474   -1.1336009539    2.1582455762
     N    -0.9207514502    0.0601402525    1.5343378725
     C    -1.3763957166    1.1610144539    2.1821854856
     C    -1.9815412950    1.1099725759    3.4238030569
     S    -2.9212720898   -0.1551124166    5.6442103344
     H    -1.7526141507   -2.2615574768    3.8346456069
     H    -0.6997749667   -2.0071981197    1.6377385654
     H    -1.2302077015    2.1142282525    1.6890829994
     H    -2.3204064339    2.0320176305    3.8848047335
     H    -2.8472356604   -1.4872722366    5.8414308635
