25
-7.8692965989859624e+02 frame 101   xyz file generated by TeraChem
    Mn     0.0599052911    0.2283392815   -0.2817059520
     C     5.0348466001   -0.5874242128    0.5318505655
     C     4.5517828470   -0.4325818739   -0.7890489110
     C     3.1969728027   -0.2235653701   -0.9613759644
     N     2.2940259842   -0.1512701597    0.0838308493
     C     2.7308817033   -0.2992497564    1.3348167241
     C     4.0979593433   -0.5205427316    1.6318757274
     C     6.3918965750   -0.8086655123    0.8107819346
     H     5.2206439149   -0.4790272087   -1.6438359580
     H     2.7903329223   -0.1092183169   -1.9619479315
     H     2.0041684434   -0.2470522426    2.1410800584
     H     4.4330107047   -0.6352031593    2.6605602679
     N     7.5371566575   -0.9960574704    1.0609546587
     C    -1.2291828065   -1.8450302545   -2.4029122717
     O    -0.5107022269   -1.1306691540   -1.6947768385
     H    -2.3188850103   -1.8658689573   -2.2668074626
     H    -0.7767207574   -2.4718222898   -3.1824241947
     C    -0.6731275367    3.2905351844   -1.0262719309
     O    -0.2235738581    2.2007112248   -0.6555661207
     H    -1.6004175723    3.3494869865   -1.6121493974
     H    -0.1421241960    4.2163273744   -0.7685225283
     C    -1.6367936408   -0.1733320795    2.4210777347
     O    -0.7061387905   -0.1057269437    1.6099322136
     H    -2.6774970123   -0.0055947379    2.1126743611
     H    -1.4275393778   -0.4058183192    3.4732107358
