21
-1.4845300986198649e+03 frame 40   xyz file generated by TeraChem
    Mn    -0.4188388991    0.3059895483   -0.0185393365
     O     1.8525561900    0.3916895434   -0.0611942485
     C     2.7240399658   -0.3120953203    0.7552534404
     C     3.9977543438   -0.0401207049    0.3882308622
     C     3.9316306233    0.8845242311   -0.7145493062
     C     2.6211832874    1.1218421542   -0.9539812159
     H     2.2498613685   -0.9082503839    1.5189718973
     H     4.8899377651   -0.4417151620    0.8476328547
     H     2.0606438176    1.7292105245   -1.6475972141
     H     4.7637562347    1.3170247336   -1.2519875306
     O    -0.7165317240   -1.5325779770   -1.3469506798
     C    -0.7050852816   -2.8526714075   -0.9240718388
     C    -0.8489658591   -3.6685578157   -1.9939771388
     C    -0.9607311986   -2.8237694131   -3.1553049391
     C    -0.8786436520   -1.5442006043   -2.7230403996
     H    -0.6070954907   -2.9820056565    0.1421232868
     H    -0.8807527955   -4.7487190524   -1.9690209524
     H    -0.9237793893   -0.5675292289   -3.1780384519
     H    -1.0927260701   -3.1399745526   -4.1804478864
    Cl    -1.0189841113    1.8850684585   -1.5558042897
    Cl    -0.7069399724   -0.7085700449    2.0115781306
