27
-1.4019151596623030e+03 frame 29   xyz file generated by TeraChem
    Cr    -0.1319538654    0.0116073299   -0.3763862866
     C     4.5202824119   -0.2794357346    0.7148012659
     C     3.9158865572    0.9703289861    0.4845922032
     C     2.5803758535    1.0265348772    0.1338662900
     N     1.8142592142   -0.0836172649   -0.0115021585
     C     2.3921223227   -1.2929392947    0.2122032706
     C     3.7170344516   -1.4299036489    0.5690506510
     S     6.1983554789   -0.4934281023    1.1700722726
     H     4.4724141220    1.8963170857    0.5804748283
     H     2.0840749947    1.9728150118   -0.0463517829
     H     1.7560482658   -2.1668905799    0.1075013801
     H     4.1230271917   -2.4213870894    0.7396193870
     H     6.5296674935    0.8137225371    1.1930598616
     C    -1.0843327107   -3.1249556772   -3.8681369281
     C     0.0934387781   -2.3514042491   -3.8910255523
     C     0.3560133214   -1.4855745319   -2.8480677129
     N    -0.4744145431   -1.3438477969   -1.7855485109
     C    -1.6140155226   -2.0822748139   -1.7599166072
     C    -1.9452933199   -2.9700637263   -2.7632948534
     S    -1.5398134811   -4.2591074868   -5.1229101346
     H     0.7978309009   -2.4159199665   -4.7133340877
     H     1.2501861193   -0.8702803966   -2.8487135062
     H    -2.2595330333   -1.9418839436   -0.8996193853
     H    -2.8687650561   -3.5344618994   -2.6885000682
     H    -0.4746953381   -4.0541119385   -5.9246142752
     I    -0.9260941798    2.2163996321   -1.3678395154
     I    -1.2168088202   -0.4197397008    1.8861180173
