17
-3.4922316731781711e+02 frame 52   xyz file generated by TeraChem
    Fe    -0.0009566233   -0.0138639264    0.0073553912
     N     2.1038795492    0.3730952836   -0.0914885527
     H     2.4283966838    1.1232720012    0.5282731271
     H     2.6566381722   -0.4484814853    0.1774392756
     H     2.4495560165    0.6270071619   -1.0235272659
     N    -0.5166449599   -1.6449962080   -1.2786115354
     H    -0.2275218943   -1.4841080754   -2.2501250087
     H    -0.0878246902   -2.5409783565   -1.0220255728
     H    -1.5225291430   -1.8383751912   -1.3350213933
     N    -0.8499012876    1.8734689137   -0.5540738130
     H    -0.4671495318    2.2728186280   -1.4178488401
     H    -1.8589455218    1.7991726281   -0.7239889554
     H    -0.7535808056    2.6148558795    0.1481988866
     N    -0.7343116795   -0.5994020889    1.9274734030
     H    -0.6043840525    0.1291269738    2.6385280186
     H    -1.7377655436   -0.8124716175    1.9505647283
     H    -0.2771532276   -1.4302379424    2.3188137656
