39
-9.9522422381802278e+02 frame 64   xyz file generated by TeraChem
    Fe     0.1003242683    0.1113445863    0.0168034239
     C     4.8668811399   -0.4303178390   -0.4202018838
     C     4.0066922958   -0.4671921842   -1.5439571080
     C     2.6454460136   -0.3434658553   -1.3467946185
     N     2.0940389698   -0.1810073631   -0.1039848213
     C     2.9275497567   -0.1452873530    0.9775997676
     C     4.2994308131   -0.2660349546    0.8654435518
     C     6.2711290642   -0.5566575220   -0.5801408165
     H     4.4052728759   -0.5932729387   -2.5458548612
     H     1.9670032700   -0.3797153705   -2.1949099974
     H     2.4673326416   -0.0147196851    1.9505511661
     H     4.9253518020   -0.2337585561    1.7519251372
     N     7.4283853942   -0.6619511387   -0.7124817983
     C    -2.2222219257   -3.2307129522   -2.5649578363
     C    -0.9928894292   -3.5257100753   -1.9290196892
     C    -0.3417976794   -2.5226274979   -1.2371468542
     N    -0.8429031149   -1.2542472093   -1.1376258101
     C    -2.0305218933   -0.9722785455   -1.7526506938
     C    -2.7410059603   -1.9173733387   -2.4670673746
     C    -2.9211122575   -4.2324001973   -3.2871854979
     H    -0.5624608828   -4.5208453051   -1.9836971803
     H     0.6066347607   -2.7182789454   -0.7463028894
     H    -2.4138462617    0.0397753296   -1.6626236634
     H    -3.6806238421   -1.6524055144   -2.9420305848
     N    -3.4959460615   -5.0588467025   -3.8824795900
     C    -1.3988393472    2.8456535938   -0.2813440966
     N    -0.2416211023    2.0247493905   -0.8038920165
     H     0.6172542054    2.5757207631   -0.6872403632
     H    -0.3428662519    1.9359420564   -1.8223083035
     H    -1.2351024358    3.0637027222    0.7746908118
     H    -2.3306118665    2.2913611748   -0.4102938002
     H    -1.4663626969    3.7887608141   -0.8309077794
     C    -0.3521967571    0.8029527644    3.0516169316
     N    -0.7501087326   -0.1240998593    1.9248066334
     H    -1.7695118330   -0.0661424849    1.8103538766
     H    -0.5967410583   -1.0907160156    2.2387719148
     H    -0.5228336657    1.8370526140    2.7495780624
     H     0.7022113327    0.6540237371    3.2880131684
     H    -0.9491952059    0.5856518688    3.9415532525
