38
-1.6047256827450728e+03 frame 45   xyz file generated by TeraChem
    Fe     0.0199482437   -0.1965855766   -0.2096706856
     C     4.7315812938    0.4026789643    0.5699200295
     C     4.0024728246    1.3638105575   -0.1569084361
     C     2.6527130376    1.1547066233   -0.3720196016
     N     2.0067367185    0.0507921565    0.0903261669
     C     2.7069861954   -0.8735980226    0.8011057296
     C     4.0608195738   -0.7347451557    1.0545758398
     C     6.1274088450    0.5840258176    0.8120258834
     H     4.4847125291    2.2564454938   -0.5399626177
     H     2.0582285095    1.8808482568   -0.9177867596
     H     2.1547075259   -1.7302499057    1.1722232605
     H     4.5864502397   -1.4928750495    1.6248937427
     N     7.2646720862    0.7333450138    1.0049811636
     C    -0.9986733684   -2.9297906446   -4.0328155865
     C     0.2045225177   -2.1993944719   -3.9839221839
     C     0.4641924129   -1.4164331125   -2.8742291214
     N    -0.4042144800   -1.3235390109   -1.8320318910
     C    -1.5618683929   -2.0363766057   -1.8716686423
     C    -1.8917927366   -2.8400086555   -2.9497182757
     C    -1.3027365466   -3.7494306138   -5.1622101153
     H     0.9204929693   -2.2491850467   -4.7969233288
     H     1.3864468911   -0.8485399165   -2.7992357938
     H    -2.2206422238   -1.9597367985   -1.0130779695
     H    -2.8240973776   -3.3942238051   -2.9473539749
     N    -1.5491447000   -4.4123005237   -6.0856383252
     C    -2.2045390727    4.0693644743   -0.6096235894
     C    -1.7568983109    3.3890214719   -1.7585068048
     C    -1.1168451783    2.1724851915   -1.6067416695
     N    -0.9002998551    1.6114236296   -0.3868428227
     C    -1.3386842900    2.2643639722    0.7230509001
     C    -1.9855018788    3.4863572580    0.6512485872
     C    -2.8713406297    5.3270546027   -0.7260924722
     H    -1.9125768715    3.8044628017   -2.7480790115
     H    -0.7707442115    1.6196008511   -2.4743382970
     H    -1.1635761706    1.7813032892    1.6776165637
     H    -2.3201219350    3.9763024541    1.5591524188
     N    -3.4120846447    6.3522143511   -0.8237485988
    Cl    -0.8297126620   -1.1429754114    1.5408176548
