53
-1.3169854453910652e+03 frame 54   xyz file generated by TeraChem
    Ni     0.2581123583   -0.2526466650   -0.2813745297
     N    -0.9423668993   -1.1005127201   -1.5464719729
     N    -0.4221365089   -1.6046878046    0.9305647183
     C    -0.9847181053   -0.8707870020   -2.8712835431
     H    -0.4190643388   -0.0227186921   -3.2372453177
     C    -1.7022951363   -1.6769589800   -3.7458486238
     H    -1.7017766702   -1.4393513970   -4.8044862600
     C    -2.4057987329   -2.7866254063   -3.2601992105
     C    -2.3199337139   -3.0361226463   -1.8804511014
     H    -2.8128667614   -3.9075763334   -1.4630744474
     C    -2.1167456487   -3.2854273974    1.1767265118
     H    -2.8842182219   -3.9024310259    0.7228563802
     C    -1.8956910405   -3.3654587034    2.5586599679
     C    -0.9248537412   -2.5052232122    3.0949779315
     H    -0.7192491435   -2.4947318560    4.1606657290
     C    -0.2226536129   -1.6462636685    2.2630704739
     H     0.5142105737   -0.9616493555    2.6647662588
     C    -1.5848818599   -2.1962137879   -1.0527336066
     C    -1.3849168968   -2.4001964346    0.3905639038
     C    -2.6836933573   -4.2993520105    3.4321353586
     C    -3.1959934588   -3.6894167004   -4.1638676720
     H    -3.1773292390   -3.3431247591   -5.1993660287
     H    -4.2411292704   -3.7461202504   -3.8380604489
     H    -2.7945033376   -4.7095364744   -4.1366531932
     H    -3.3220791766   -4.9637908795    2.8457098268
     H    -3.3219417249   -3.7295840005    4.1186247199
     H    -2.0175656474   -4.9125710713    4.0490484401
     N     1.9493404724    0.1970240777    0.5533220544
     N     0.4294674110    1.5138284135   -1.0618223668
     C     2.7456057207   -0.6477713536    1.2332835010
     H     2.3312382376   -1.6198114010    1.4715074537
     C     4.0404042307   -0.3132209794    1.6098239847
     H     4.6343316984   -1.0350327684    2.1606137631
     C     4.5681842259    0.9390073352    1.2701711815
     C     3.7396052187    1.7947368965    0.5256781396
     H     4.1179428029    2.7584121331    0.2024029661
     C     1.6961656022    3.5488338695   -0.9560465054
     H     2.5764384784    4.0761439811   -0.6056982281
     C     0.7239815487    4.2412822947   -1.6911183590
     C    -0.4186309445    3.5181473083   -2.0672902735
     H    -1.2260044821    3.9977482471   -2.6115416060
     C    -0.5321106905    2.1765027947   -1.7353183912
     H    -1.4183563292    1.6139442220   -2.0024052285
     C     2.4527956989    1.4057789757    0.1744173499
     C     1.5268084077    2.2025356059   -0.6459733504
     C     0.8837733430    5.6919926952   -2.0447968043
     C     5.9605436743    1.3504302980    1.6555002359
     H     6.4610431080    0.5822871700    2.2488955051
     H     5.9427121310    2.2786200879    2.2384902915
     H     6.5672230114    1.5428247821    0.7625468332
     H     1.7765578547    6.1267579025   -1.5898874827
     H     0.0116273996    6.2702726253   -1.7198489312
     H     0.9608580975    5.8134662802   -3.1322897464
