45
-1.1378466742268988e+03 frame 117   xyz file generated by TeraChem
    Co    -0.0725160346   -0.0104985496   -0.0091427578
     C     4.5559451969   -1.5299208780   -0.0090117306
     C     4.2231547399   -0.1918008132    0.2123050150
     C     2.8887874314    0.1853382566    0.1397675769
     N     1.8973207612   -0.6892175886   -0.1503360546
     C     2.2268832541   -1.9842972628   -0.3615236334
     C     3.5374311976   -2.4406229878   -0.2966984590
     H     5.5898855071   -1.8568050486    0.0446437039
     H     4.9819237872    0.5489488183    0.4405114456
     H     2.5888976514    1.2141878296    0.3179435696
     H     1.4103428183   -2.6623824624   -0.5869507832
     H     3.7516589744   -3.4900039009   -0.4687776827
     C    -2.4014482393   -2.4310854337   -3.5235957942
     C    -1.0319415273   -2.1893910794   -3.6500822072
     C    -0.3649276208   -1.5454433163   -2.6157943027
     N    -0.9938354264   -1.1380671390   -1.4890041229
     C    -2.3242001693   -1.3660990096   -1.3780188373
     C    -3.0578400141   -2.0108272507   -2.3647142667
     H    -2.9482111352   -2.9347456725   -4.3149475688
     H    -0.4855128042   -2.4931502655   -4.5365193585
     H     0.6985684588   -1.3404659532   -2.6791351098
     H    -2.8038805825   -1.0153871474   -0.4680724487
     H    -4.1209474423   -2.1752694241   -2.2260139475
     C    -1.1010458646    4.6354827405   -1.0354956361
     C    -0.0759270054    3.9521577653   -1.6934864555
     C     0.2036759407    2.6447096792   -1.3188156931
     N    -0.4696715205    2.0088459411   -0.3307914641
     C    -1.4641561405    2.6762809976    0.2997005372
     C    -1.8083262480    3.9822807086   -0.0242347712
     H    -1.3461163503    5.6573435724   -1.3085857065
     H     0.4963969937    4.4207340233   -2.4868217446
     H     0.9872298700    2.0791488652   -1.8157732075
     H    -1.9890674171    2.1354409764    1.0800380457
     H    -2.6160380787    4.4742827615    0.5069345029
     C    -1.0135420489   -0.6601114398    4.7264077643
     C    -1.2507467364   -1.6592033113    3.7800647898
     C    -1.0017104356   -1.3844401313    2.4416499801
     N    -0.5497394968   -0.1816925936    2.0156762625
     C    -0.3189825627    0.7802898460    2.9381589471
     C    -0.5353533592    0.5790542006    4.2954348306
     H    -1.1954240489   -0.8449919005    5.7807075211
     H    -1.6197144174   -2.6368973016    4.0708134102
     H    -1.1665849803   -2.1432852676    1.6807365403
     H     0.0499493321    1.7295000480    2.5640244623
     H    -0.3313906629    1.3801214766    4.9978354468
