20
-1.8895320991800734e+03 frame 40   xyz file generated by TeraChem
    Co     0.1937698659   -0.1487361187   -0.3067010486
     C     1.9698167512    0.0566286729   -0.0863931250
     N     3.1079031411    0.1827486277    0.0762867888
     C     5.0996582668   -0.9689672964    0.9250559990
     C     4.5965436733   -1.5086585404    2.1153866177
     C     5.1569673694   -2.6691253577    2.6448734320
     C     6.2275114494   -3.2900280488    1.9956370828
     C     6.7321553615   -2.7518675153    0.8119782916
     C     6.1651741047   -1.5951558270    0.2732163756
     H     3.7616888758   -1.0304442415    2.6218102358
     H     4.7585977008   -3.0872983476    3.5644677317
     H     7.5610188489   -3.2335349137    0.3016166015
     H     6.5535918234   -1.1821274857   -0.6544771834
     H     6.6638126624   -4.1937007929    2.4113635673
     C     4.5132619818    0.3084222754    0.3553608449
     H     5.0016318622    0.5912071725   -0.5815962238
     H     4.6093074081    1.1499702514    1.0513064694
    Cl     0.2319834513   -1.6650143446   -1.8684909704
    Cl    -0.1583438995    1.9736571653   -0.6499161351
    Cl    -0.1176196250   -1.0934035933    1.6399187378
