9
-4.9488571136820309e+02 frame 33   xyz file generated by TeraChem
    Fe    -0.0096538091    0.0058603986    0.0105534132
     C     1.9416721967    0.3333651301   -0.2559407019
     N     3.0860579649    0.5246998370   -0.4146317534
     C    -0.6272112880   -1.3289563878   -1.3390662597
     N    -0.9870843508   -2.1131399802   -2.1308625038
     C    -0.9964136118    1.7229722555   -0.2390446480
     N    -1.5710771257    2.7324673718   -0.3872737801
     C    -0.3256956208   -0.7226804563    1.8418206217
     N    -0.5107090335   -1.1546569174    2.9144164528
