25
-1.1340683836476360e+03 frame 68   xyz file generated by TeraChem
    Co    -0.3008132675    0.0845553894    0.1265508109
     C     2.5579612497    1.0636364441   -0.4604831910
     O     1.6763324067    0.3007414714   -0.0500302786
     H     3.6088502261    0.7570856702   -0.3828130372
     H     2.3187078337    2.0404492021   -0.9020317560
     C    -0.8137359330   -1.9595947034   -2.1460025548
     O    -1.0198959559   -1.2494931456   -1.1565836573
     H    -1.6349060434   -2.5653917721   -2.5498225238
     H     0.1708166636   -2.0012124903   -2.6313126455
     C    -1.8973261595    2.6050392876   -0.7081326408
     O    -1.1683557192    1.8536452091   -0.0520383523
     H    -2.0400062355    3.6393738144   -0.3699649011
     H    -2.4056482135    2.2633025371   -1.6200460853
     C    -1.0146300447   -1.7518637996    4.6262168397
     C    -2.1242394027   -1.3882211687    3.8204569191
     C    -1.8761584163   -0.8757936682    2.5534618933
     N    -0.6216365773   -0.7105473006    2.0606837185
     C     0.4391299365   -1.0588888791    2.8243573287
     C     0.2973937453   -1.5817264904    4.1075305927
     S    -1.1423863376   -2.4035641178    6.2319983089
     H    -3.1502032929   -1.4961937278    4.1604614827
     H    -2.7053237633   -0.5910639315    1.9135138204
     H     1.4267206710   -0.9176467238    2.3977037549
     H     1.1819197277   -1.8458338722    4.6814031684
     H    -2.4969740848   -2.4062076372    6.3411131464
