37
-1.0690374683970790e+03 frame 127   xyz file generated by TeraChem
    Fe    -0.0797981528   -0.0294797824    0.0987401245
     C     2.9962210025   -0.6623659444    0.5819586358
     N     1.8835798641   -0.3567619003    0.4176493105
     C     4.3774401733   -1.0400207375    0.7863455169
     H     4.7569221398   -0.5792235457    1.7077366811
     H     4.9853042878   -0.7055800495   -0.0644303116
     H     4.4512989728   -2.1320991004    0.8740167170
     C    -0.9819038885   -1.7021122984   -2.4398904331
     N    -0.7098305231   -1.1118195560   -1.4725832127
     C    -1.3207667221   -2.4352489742   -3.6395681304
     H    -0.4790815736   -3.0769655974   -3.9317306876
     H    -1.5390665303   -1.7326329793   -4.4544488003
     H    -2.2044229678   -3.0605736097   -3.4563852512
     C    -0.7410617866    4.6266166452   -0.9609471766
     C     0.5681308913    4.1382273824   -0.7375947377
     C     0.7328630736    2.8069813036   -0.3991913710
     N    -0.3195844217    1.9508964710   -0.2739646187
     C    -1.5829453574    2.4239284499   -0.4860434497
     C    -1.8346081265    3.7381648544   -0.8293758782
     C    -0.9530191519    5.9861092271   -1.3089275765
     H     1.4300407019    4.7913872273   -0.8297017548
     H     1.7209572318    2.3970191480   -0.2230758072
     H    -2.4018424607    1.7181442000   -0.3798193177
     H    -2.8521493470    4.0778549626   -0.9939305831
     N    -1.1278321591    7.1075539944   -1.5949252585
     C    -2.4633054318   -1.2982958218    4.0832021533
     C    -1.8465408878   -0.0278803493    3.9851349504
     C    -1.2083428264    0.3102477740    2.8069669810
     N    -1.1468291560   -0.5372705635    1.7397779951
     C    -1.7433195312   -1.7598786625    1.8326666437
     C    -2.4039170340   -2.1755337712    2.9743175768
     C    -3.1326053265   -1.6845619093    5.2731604769
     H    -1.8737357695    0.6707714742    4.8152045319
     H    -0.7277215000    1.2774107148    2.6978303106
     H    -1.6828649694   -2.4093046853    0.9653109841
     H    -2.8660739051   -3.1567385426    3.0140713453
     N    -3.6849426172   -2.0024800776    6.2552971052
