60
-1.4622279982509988e+03 frame 90   xyz file generated by TeraChem
    Fe    -0.1366130999    0.3333266637    0.2192328889
     C     1.9527146097    0.6568829239   -0.0572195197
     N     3.0977615019    0.8254873685   -0.1474207753
     C     5.0684452138    1.1269395458   -1.6283555861
     C     5.5767824143   -0.0062107605   -2.2704134013
     C     6.1322175208    0.0967529892   -3.5657067678
     C     6.1795078233    1.3305999169   -4.2157087594
     C     5.6773015382    2.4638647063   -3.5770213441
     C     5.1238977837    2.3638253352   -2.2817237769
     H     5.5734138902   -0.9715803396   -1.7707135572
     H     6.5358670223   -0.7904785236   -4.0434663861
     H     5.7236449894    3.4334071823   -4.0628832668
     H     4.7647699705    3.2633745360   -1.7880783814
     H     6.6184375726    1.4102313310   -5.2049162409
     C     4.5361497836    1.0315997256   -0.2110583410
     H     4.7319232933    1.9473630942    0.3559418793
     H     4.9844196631    0.1948182686    0.3336223931
     C    -0.7724059945   -1.0320740506   -1.2865318180
     N    -1.0762266823   -1.7656607132   -2.1334821439
     C    -2.4885114205   -3.6721737648   -2.8742689588
     C    -2.1445427119   -4.9086853900   -2.3146875921
     C    -3.1400325528   -5.8747189823   -2.0496058613
     C    -4.4757998070   -5.6074964317   -2.3479256848
     C    -4.8224673292   -4.3783797839   -2.9104709533
     C    -3.8284791291   -3.4096746377   -3.1748189285
     H    -1.1054685215   -5.1470400397   -2.1015938068
     H    -2.8532766224   -6.8328854330   -1.6276908587
     H    -5.8558681510   -4.1634774348   -3.1640061451
     H    -4.1151812040   -2.4691592528   -3.6383913293
     H    -5.2385160844   -6.3557055723   -2.1582371023
     C    -1.4134409484   -2.6615691027   -3.2275041901
     H    -1.7227118934   -2.0196079433   -4.0579898576
     H    -0.4764614072   -3.1521513141   -3.5099405543
     C    -1.1490774408    2.1782287432   -0.1000357769
     N    -1.7082581393    3.1730066859   -0.3153081488
     C    -2.7063179420    5.2618637790    0.5837395409
     C    -1.8302074339    6.2880814811    0.9492584640
     C    -2.1312771593    7.1290303037    2.0454690462
     C    -3.3076077031    6.9440988674    2.7729209836
     C    -4.1867037285    5.9251275143    2.4089793962
     C    -3.8883188129    5.0847063941    1.3125505632
     H    -0.9210786235    6.4646519168    0.3803607896
     H    -1.4455636017    7.9290554349    2.3063445225
     H    -5.1141823782    5.7797559095    2.9538679449
     H    -4.6003180322    4.3144951662    1.0269780269
     H    -3.5431155234    7.5979967336    3.6062195239
     C    -2.4179446923    4.4005783224   -0.6320018621
     H    -1.7959937823    4.9290265475   -1.3612527419
     H    -3.3403033760    4.0948823626   -1.1357643197
     C    -1.3671005742   -1.1256719453    4.6487978301
     C    -2.2361747025   -1.3246979541    3.5723434002
     C    -1.8554018906   -0.8837934023    2.3135101521
     N    -0.6685098008   -0.2668414285    2.0906101892
     C     0.1690391636   -0.0728230287    3.1392549147
     C    -0.1440656829   -0.4879127996    4.4255564117
     H    -1.6385277974   -1.4618763141    5.6450431934
     H    -3.1942626356   -1.8155283319    3.7054953512
     H    -2.5016489490   -1.0230619335    1.4518023667
     H     1.1092290637    0.4270609931    2.9264113790
     H     0.5580475599   -0.3154524103    5.2341863042
