25
-4.6629484792060987e+02 frame 35   xyz file generated by TeraChem
    Cr     0.0029493786   -0.0346809743   -0.0386709882
     N    -0.8164166516   -1.1436102915   -1.5311921021
     N    -0.8534356786   -1.4589882378    1.1790570317
     C    -1.9202848947   -2.2088828424    0.3833155063
     C    -1.3312640790   -2.4817134065   -0.9881882643
     H    -2.0686255575   -2.8936439458   -1.6858726864
     H    -0.4788116376   -3.1664856145   -0.9467057484
     H    -2.8139135547   -1.5764215502    0.3420786114
     H    -2.1891691378   -3.1340103874    0.9053105309
     H    -1.6122712704   -0.6159302283   -1.9285256076
     H    -0.1913761023   -1.3075512731   -2.3352473033
     H    -0.1461306188   -2.1332070707    1.5124121215
     H    -1.2627793776   -1.0745110440    2.0457494470
     N     2.0226152004    0.0297965389    0.0320694427
     N     0.1444642706    2.0219764387   -0.2112559612
     C     1.5524334249    2.4416921418    0.2057241313
     C     2.5176127535    1.4255371263   -0.3763227368
     H     3.5395837917    1.5650043571   -0.0069941219
     H     2.5442601638    1.4514415430   -1.4702148787
     H     1.5801295846    2.4639735740    1.3002160702
     H     1.7628469548    3.4542952291   -0.1557734431
     H     2.3381802124   -0.1650670294    0.9983270513
     H     2.4978944814   -0.6864305168   -0.5388614254
     H    -0.0192394674    2.3211979958   -1.1863764706
     H    -0.5551271649    2.5494718214    0.3348761626
