16
-8.6582409403922009e+02 frame 70   xyz file generated by TeraChem
    Fe     0.1604215448    0.1098899910   -0.0339861509
     C     3.2142720536   -0.4415181414   -0.7234868955
     O     2.1035613290   -0.0966465885   -0.3174025034
     H     4.1157405827    0.0039301730   -0.2838376599
     H     3.3179161671   -1.1893943254   -1.5207206522
     C    -1.3694461842   -1.8584680655   -2.0393740670
     O    -0.9964393146   -1.0484686455   -1.1911168097
     H    -2.4425693309   -2.0212046033   -2.2025657991
     H    -0.6456258510   -2.4258867505   -2.6395256195
     C    -1.1772888245    2.9813316462   -0.1880653048
     O    -0.5936696522    1.9081324065   -0.3438593112
     H    -1.6347033739    3.2425696087    0.7753811897
     H    -1.2417645473    3.6896500667   -1.0238104138
     S    -0.1752153372   -0.9318322069    2.2374057579
     H    -1.4824186804   -0.7275840604    2.5107867378
     H     0.2783036702   -0.0091511277    3.1141604578
