13
-1.9044022061486401e+03 frame 51   xyz file generated by TeraChem
    Fe     0.4140141595   -0.3920925445   -0.2184850499
     N     2.0209672621    0.3105087929    0.4797964565
     C     3.0670713261    0.7370044966    0.8786023550
     S     4.4563389476    1.3188426182    1.4183327809
     N    -0.6082570185   -1.4362440785   -1.4156499518
     C    -1.2246972243   -2.0988233228   -2.2006748807
     S    -2.0630933695   -2.9750082444   -3.2445656957
     S    -0.8432761463    1.9609044593   -0.5789302057
     H     0.2539935012    2.6842234720   -0.8844985776
     H    -1.1989889921    1.7774629676   -1.8676423297
     S    -0.6906777807   -1.3591478012    2.0190478457
     H    -1.9978081651   -1.1612377696    1.7489056451
     H    -0.6114960392   -0.3043750933    2.8574273783
