8
-1.5991041597836804e+03 frame 40   xyz file generated by TeraChem
    Mn     0.2649827333    0.1875941425    0.5968377621
     C     2.8881584229   -0.2566136147   -0.6365157616
     O     2.2572900294   -0.0460706528    0.3929015461
     H     3.9797196710   -0.3588729042   -0.5815872025
     H     2.3891200646   -0.3522520848   -1.6098583613
    Cl    -0.3383873700   -1.2963840321   -0.8651067029
    Cl     0.0149476227    2.2929718951    0.2275311351
    Cl    -0.6918138801   -0.1698218825    2.4752172763
