9
-2.9915456532096744e+02 frame 30   xyz file generated by TeraChem
    Fe     0.2906781870   -0.1453741433   -0.1687295164
     O     2.2734661064   -0.4658357760   -0.4892497540
     H     2.6861498065    0.3771004383   -0.7561633057
     H     2.6850909463   -0.7371995863    0.3527844281
     O    -1.3492273468   -1.0099749689   -1.0479231675
     H    -1.8858928847   -0.2906576630   -1.4297383694
     H    -1.8744271343   -1.4210833926   -0.3363816887
     I     0.0915056504    2.1822116818   -1.3809857109
     I     0.0909581685   -1.3881221354    2.1428757449
