29
-1.6018917217330559e+03 frame 63   xyz file generated by TeraChem
    Fe     0.0200225249   -0.0380634118   -0.2198842784
     N     1.8024031181    0.2484134003    0.0289501899
     C     2.9133707160    0.2851168983    0.5143305487
     S     4.3911076444    0.3578305615    1.0953640800
     N    -1.0703575445   -0.9963731313   -1.3190484087
     C    -1.9005247284   -1.2869992037   -2.1546516317
     S    -2.9725283227   -1.7308870988   -3.2404963335
     C    -1.8368991617    4.2543439555   -0.7465596117
     C    -0.4693134135    4.0447501546   -0.9533656256
     C     0.0639938219    2.7744549501   -0.7479360993
     N    -0.7149033647    1.7345264734   -0.3504553394
     C    -2.0432655043    1.9305759311   -0.1503211330
     C    -2.6331817560    3.1777506755   -0.3379639940
     H    -2.2760930619    5.2382120172   -0.9038481258
     H     0.1882983636    4.8507149665   -1.2720200988
     H     1.1169234650    2.5531758723   -0.8926180299
     H    -2.6248960984    1.0621709443    0.1483775290
     H    -3.7021942053    3.2924717361   -0.1717200540
     C    -1.0699661836   -1.5353576327    4.0987309543
     C    -0.5179763897   -0.2626352165    3.9112859845
     C    -0.2468063063    0.1743858016    2.6177203088
     N    -0.5097796558   -0.6014408447    1.5357928393
     C    -1.0426506406   -1.8390249303    1.7081750024
     C    -1.3335794994   -2.3313306842    2.9788478753
     H    -1.2870289549   -1.9013733090    5.1009776111
     H    -0.2891850683    0.3876089916    4.7529119908
     H     0.2012358008    1.1448033356    2.4212275376
     H    -1.2296402750   -2.4151655297    0.8063885146
     H    -1.7601817447   -3.3273125644    3.0767949060
