38
-1.5851702739432337e+03 frame 41   xyz file generated by TeraChem
    Mn    -0.0718275251    0.1407494377   -0.0829173354
     C     4.6502588554    0.1610080873    0.2253889235
     C     4.0115934538    0.7004909390   -0.9083251282
     C     2.6311092990    0.6652507036   -0.9795910052
     N     1.8707748864    0.1214735722    0.0078400725
     C     2.4820030517   -0.3976439432    1.1075970844
     C     3.8605693109   -0.3955658383    1.2460873107
     C     6.0744544350    0.1840378803    0.3334959780
     H     4.5866259409    1.1432186554   -1.7142355236
     H     2.1061974789    1.0827121889   -1.8327324913
     H     1.8420658307   -0.8130357653    1.8778586864
     H     4.3131809868   -0.8174393535    2.1369462419
     N     7.2341756476    0.2034210409    0.4176919330
     C    -1.5637297100   -3.3466381088   -2.8957963820
     C    -0.1867006390   -3.1956750155   -2.6511478135
     C     0.2470727794   -2.1293531195   -1.8830959002
     N    -0.6162050594   -1.2145418269   -1.3655752417
     C    -1.9499770453   -1.3595436122   -1.5999130050
     C    -2.4565058279   -2.4033126815   -2.3526165469
     C    -2.0472971724   -4.4378308243   -3.6798979631
     H     0.5312426085   -3.9036263105   -3.0504625558
     H     1.2993449491   -1.9902811101   -1.6663727578
     H    -2.6108125473   -0.6224896050   -1.1538654996
     H    -3.5258737773   -2.4894758370   -2.5114996463
     N    -2.4400300101   -5.3245910439   -4.3218847762
     C    -1.4487605978    4.4033216069   -1.5738110022
     C    -1.3668233388    3.3283433690   -2.4791489235
     C    -0.9611396252    2.0897801930   -2.0152505714
     N    -0.6352133375    1.8810465203   -0.7113802429
     C    -0.7147668050    2.9154306677    0.1689669390
     C    -1.1138197850    4.1808462837   -0.2260880142
     C    -1.8656699419    5.6951063787   -2.0182359029
     H    -1.6209476291    3.4600406241   -3.5252118151
     H    -0.8957345885    1.2385055209   -2.6848798855
     H    -0.4618416195    2.7050318790    1.2019033933
     H    -1.1702974614    4.9811536191    0.5037269187
     N    -2.2019368124    6.7465458602   -2.3841995120
    Cl    -0.9990597261   -0.1593572536    1.8056098675
