20
-3.8785026568695866e+02 frame 32   xyz file generated by TeraChem
    Fe    -0.2372724151   -0.0013563219   -0.0644197249
     N     1.6408270240   -0.1051005632   -0.6097850262
     H     2.3001066144    0.3303194545    0.0549251263
     H     1.9791395254   -1.0708378162   -0.7514769551
     H     1.7962415795    0.3775256484   -1.5138399714
     N    -1.0593127835   -1.4273170647   -1.2252941816
     H    -0.6311338228   -2.3667114259   -1.2084635911
     H    -2.0610348851   -1.5903324931   -1.0227028516
     H    -1.0416453372   -1.1500513158   -2.2228603341
     N    -0.3424195791    1.9603280676    0.3742418196
     H    -0.2865047127    2.5396229074   -0.4819529524
     H    -1.2432649262    2.2294815928    0.8057958898
     H     0.3819412607    2.3439942735    1.0004556706
     C     0.2870915637   -0.2969922034    2.8638831504
     N    -0.4433725288   -0.8630029668    1.6708740279
     H    -1.4619595237   -0.8625224313    1.8645391737
     H    -0.1849526515   -1.8563985936    1.5584475234
     H    -0.0788937813    0.7041643609    3.0949145094
     H     1.3661551336   -0.3235714218    2.6972111573
     H     0.0584370352   -0.9571185266    3.7188574900
