52
-1.7053050411439829e+03 frame 326   xyz file generated by TeraChem
    Fe    -0.4227149598    0.2940430049    0.5567512403
     S     1.5606982863   -0.7560240759    0.2603946468
     C     1.3185189243   -2.3319169046    0.7938097641
     N     1.1293918977   -3.4322489357    1.1513267845
     C    -1.4542671910   -0.8385400557   -0.4995864170
     N    -2.0532302565   -1.5706927023   -1.1744357888
     C    -2.6789634909   -2.0623925210   -3.5018027845
     C    -3.7490642433   -1.3819694711   -4.0834745458
     C    -3.6917749230   -1.0039177053   -5.4354919474
     C    -2.5623244501   -1.3036319996   -6.2040089569
     C    -1.4924911941   -1.9848669395   -5.6266038784
     C    -1.5492101003   -2.3666795098   -4.2778904041
     H    -4.6394398892   -1.1579846592   -3.5013989792
     H    -4.5349722248   -0.4873909796   -5.8835379355
     H    -0.6170429641   -2.2336082336   -6.2180711054
     H    -0.7175461141   -2.9136802635   -3.8402536328
     H    -2.5256485922   -1.0158422678   -7.2498622758
     C    -2.7445671071   -2.4958272671   -2.0500693776
     H    -2.2737308175   -3.4720162770   -1.8967424972
     H    -3.7770848960   -2.5544055113   -1.6938259995
     C    -1.7675285339    1.6613670578    0.7158377319
     N    -2.5297978535    2.5370407305    0.7883917351
     C    -2.7037876354    4.9369381632    1.2830783521
     C    -2.0473835629    5.7096677040    0.3066883982
     C    -1.3859125209    6.8869122884    0.6662696333
     C    -1.3792296683    7.3002309150    1.9974684716
     C    -2.0369696474    6.5357559287    2.9719899439
     C    -2.6966402738    5.3535033500    2.6143413510
     H    -2.0664687475    5.3996677537   -0.7355484756
     H    -0.8904740311    7.4814507692   -0.0947016009
     H    -2.0460271914    6.8657079991    4.0061650066
     H    -3.2164538188    4.7755184225    3.3741761977
     H    -0.8748914069    8.2186437397    2.2809874472
     C    -3.4309697890    3.6682844417    0.8831408640
     H    -3.9120160504    3.7628675939   -0.0955993671
     H    -4.1980279402    3.3949198854    1.6137775383
     C    -0.7660254497   -0.5314444388    2.1793810849
     N    -0.9175454615   -1.0867965824    3.1899564937
     C     0.2819703486   -2.6267215440    4.6730955802
     C     0.5207078641   -3.8319905590    3.9852657601
     C     1.7125794666   -4.5642807867    4.2059676836
     C     2.6506893518   -4.1083884758    5.1243874881
     C     2.4091023710   -2.9189002828    5.8201037749
     C     1.2244101816   -2.1755633539    5.5890983951
     H    -0.2155979596   -4.2235706475    3.2919923966
     H     1.8760062439   -5.4828299724    3.6526546106
     H     3.1294881401   -2.5549841299    6.5462111401
     H     1.0585806079   -1.2582110042    6.1474747891
     H     3.5610516940   -4.6700105158    5.3059172012
     C    -0.9925109813   -1.8416671923    4.4201103191
     H    -1.1910916484   -1.1269709976    5.2240878845
     H    -1.8640835550   -2.4988846901    4.3336789094
