27
-1.4390481620026935e+03 frame 81   xyz file generated by TeraChem
    Fe    -0.2055905792    0.5454149530   -0.7075678086
     C     4.4541018835   -0.1944924650    0.1691479692
     C     4.0129362894    0.9619003327   -0.4968119751
     C     2.6613327778    1.1353350853   -0.7403322878
     N     1.7258286992    0.2258454361   -0.3815130487
     C     2.1492919635   -0.8939487943    0.2507131992
     C     3.4774428102   -1.1353504086    0.5463899847
     S     6.1340115810   -0.5337270742    0.5550048946
     H     4.7066883695    1.7317247894   -0.8174165757
     H     2.3015330332    2.0344405030   -1.2290973100
     H     1.3851248466   -1.6151177797    0.5199290925
     H     3.7485434504   -2.0492378016    1.0645822655
     H     6.6527217356    0.5933291448    0.0265488335
     C    -0.9599276555   -3.6590651463   -2.8834595837
     C     0.0253333708   -2.7650249945   -3.3381448075
     C     0.2295880831   -1.5759086614   -2.6606507552
     N    -0.4884970553   -1.2143790525   -1.5734405902
     C    -1.4414255681   -2.0706382911   -1.1340223383
     C    -1.6968143751   -3.2846777613   -1.7444312053
     S    -1.3228326444   -5.2005737859   -3.6438621841
     H     0.6326886235   -2.9854847956   -4.2094125682
     H     0.9915299897   -0.8782947812   -2.9923053856
     H    -2.0154919205   -1.7574831511   -0.2683343076
     H    -2.4722911754   -3.9274525575   -1.3409577129
     H    -0.4251273672   -5.1019236851   -4.6453862638
     I    -2.5259443129    1.5532564852   -1.5190182494
     I    -0.4308427794    2.6792288956    0.8545859914
