35
-8.8456568407844657e+02 frame 138   xyz file generated by TeraChem
    Fe     0.0376348467    0.0748196645   -0.0869084921
     C     2.3685381487    1.1605463559   -1.8559785948
     N     1.5302828286    0.8016968271   -1.1376704277
     C     3.4195765320    1.6097480685   -2.7513670071
     H     4.3999106588    1.4247043126   -2.2954261137
     H     3.3104055610    2.6820850092   -2.9513703422
     H     3.3569443033    1.0614853419   -3.6990332982
     C     0.5983061558   -2.6549995857   -1.4963956076
     N     0.3127743795   -1.6565481007   -0.9777284795
     C     0.9547101459   -3.9021010903   -2.1490858719
     H     2.0311489131   -4.0810436004   -2.0381526931
     H     0.7089664055   -3.8448389074   -3.2165211964
     H     0.4057707475   -4.7360215964   -1.6966716853
     C    -0.5746548282    4.4150866953    2.0487248843
     C     0.6887152106    3.8249749535    1.9645392882
     C     0.8305913968    2.5546548112    1.3451542037
     N    -0.2129457515    1.8666023084    0.8405906257
     C    -1.4405184816    2.4417915340    0.9321478136
     C    -1.6560849456    3.7131540425    1.5198820099
     H    -0.7075316181    5.3907707166    2.5078650285
     H     1.5740749914    4.3181459836    2.3563512926
     H     1.8116024714    2.0994208434    1.2587247780
     H    -2.2734072742    1.8940354390    0.5054562814
     H    -2.6641648566    4.1174224469    1.5425685446
     C    -3.5922814686   -1.8492859338    2.5204019207
     C    -2.5609751709   -1.1436526354    3.1379023282
     C    -1.5351064748   -0.5750729926    2.3437544077
     N    -1.4957383996   -0.6946685984    0.9913556697
     C    -2.4881386615   -1.3877212904    0.3995422731
     C    -3.5583212039   -1.9703472231    1.1288046618
     H    -4.3947009547   -2.2953157153    3.1014631511
     H    -2.5202767193   -1.0210198003    4.2165645985
     H    -0.7184044740   -0.0365156495    2.8123577180
     H    -2.4445379914   -1.4972684616   -0.6797053944
     H    -4.3307840621   -2.5086657713    0.5863872600
