41
-1.1349260669631312e+03 frame 37   xyz file generated by TeraChem
    Co    -0.0896230908    0.0626126087    0.0944660730
     N    -1.1958017084   -0.9462195036   -1.2410055299
     N    -0.5665426636   -1.4598982719    1.2382972230
     C    -1.3789677210   -0.6546993649   -2.5335876802
     H    -0.9482822227    0.2722910255   -2.8948622724
     C    -2.0889895388   -1.4983644369   -3.4095256271
     H    -2.2042818122   -1.2128928631   -4.4505623599
     C    -2.6302791869   -2.6838709721   -2.9142885736
     H    -3.1870918200   -3.3553634867   -3.5612691774
     C    -2.4337580852   -3.0005611059   -1.5696796854
     H    -2.8302407758   -3.9275158101   -1.1715519970
     C    -1.9522238658   -3.4332834711    1.4099155300
     H    -2.6190818249   -4.1526509339    0.9484990254
     C    -1.6437453152   -3.5479620747    2.7664468230
     H    -2.0613462154   -4.3577636773    3.3574898997
     C    -0.8037746983   -2.5989742899    3.3472927380
     H    -0.5469305782   -2.6357418022    4.4014940947
     C    -0.2819507292   -1.5686147202    2.5420570081
     H     0.3747742673   -0.8152556920    2.9673369250
     C    -1.7041017250   -2.1220273254   -0.7461797492
     C    -1.4116658144   -2.3719158437    0.6591353048
     N     1.8784127046    0.2876853755    0.3982693374
     N     0.1116845978    1.8281753206   -0.7426820685
     C     2.7307847339   -0.6095930627    0.9064887038
     H     2.3057209892   -1.5395732779    1.2669912196
     C     4.1189909843   -0.3845740832    0.9771555908
     H     4.7641501725   -1.1502063041    1.3967966600
     C     4.6314899744    0.8234090920    0.5063375363
     H     5.6965054672    1.0317031656    0.5498017825
     C     3.7504687363    1.7609352110   -0.0342138517
     H     4.1336544643    2.6974473323   -0.4230384467
     C     1.6264147523    3.6816257542   -1.0860978826
     H     2.6240458190    4.1007319430   -1.0202653517
     C     0.5793018860    4.4637687022   -1.5761859097
     H     0.7616374246    5.4844335536   -1.8994661662
     C    -0.7013121708    3.9156534673   -1.6284062272
     H    -1.5515374431    4.4888496202   -1.9850590370
     C    -0.8910818131    2.5870743165   -1.2024952419
     H    -1.8785259723    2.1358930705   -1.2286752455
     C     2.3733046487    1.4730098933   -0.0884850790
     C     1.3724226769    2.3634074411   -0.6615337354
