17
-1.4582924772763458e+03 frame 49   xyz file generated by TeraChem
    Cr     0.0047997650   -0.0072462046   -0.0034786268
     P     2.2780121472    0.3070738973    1.1551934223
     H     2.3635168986    1.4392498898    1.9899713039
     H     2.7432184002   -0.7043619179    2.0174713042
     H     3.4008041005    0.4904964068    0.3250152774
     P    -2.2521701951   -0.3490118027   -1.1854123534
     H    -2.3469379004   -0.0291105695   -2.5535286816
     H    -2.7977077022   -1.6473384604   -1.1746337266
     H    -3.3187602643    0.4027303860   -0.6530785154
     P     0.6652104702    1.7728837462   -1.7670129351
     H     1.1330639556    1.2391835764   -2.9846806623
     H    -0.3479487825    2.6407525416   -2.2185869918
     H     1.6888119762    2.6892626479   -1.4584222509
     P    -0.6913942217   -1.7306408388    1.8025967627
     H    -0.2777642842   -1.4861664719    3.1264357719
     H    -2.0607258901   -1.9992395194    1.9910564793
     H    -0.1843121186   -3.0285793718    1.5910131946
