26
-4.6653057289092459e+02 frame 36   xyz file generated by TeraChem
    Fe    -0.0779694970    0.0133729829    0.0324057679
     N     2.0151667392    0.1380400827   -0.0882120953
     H     2.4194253017    0.9062322174    0.4692913374
     H     2.5042166356   -0.7085093603    0.2415156889
     H     2.3714377143    0.2924954395   -1.0443060345
     C    -2.1119518543   -1.6558880967   -1.6183157795
     N    -0.6297874438   -1.4279793991   -1.3911063749
     H    -0.1956192555   -1.1815340447   -2.2936113711
     H    -0.1949970081   -2.3260673871   -1.1294684433
     H    -2.5762606342   -0.7404107686   -1.9894077036
     H    -2.5826786078   -1.9996331447   -0.6952972056
     H    -2.2272909587   -2.4390847203   -2.3802617262
     C    -0.5524670732    3.0239193121    0.4370816791
     N    -0.8989034715    1.8679423273   -0.4811207172
     H    -0.6037630546    2.1114142069   -1.4386640323
     H    -1.9246163387    1.7820105784   -0.5385187838
     H     0.5270666151    3.1875112740    0.4380315653
     H    -0.9290325426    2.8327721871    1.4439252983
     H    -1.0401909432    3.9294644056    0.0500794781
     C     0.2509387682   -1.2533252323    2.7995858730
     N    -0.7610019473   -0.5475629266    1.9144962981
     H    -1.1082921611    0.2835874930    2.4160142689
     H    -1.5898603415   -1.1520155672    1.8171985087
     H     1.1003317932   -0.5938721749    2.9866979698
     H     0.5614828815   -2.1929299282    2.3369198232
     H    -0.2306274444   -1.4813492755    3.7603746343
