25
-5.2567576971715960e+02 frame 47   xyz file generated by TeraChem
    Co     0.1609740743   -0.1631860464   -0.1568271451
     N    -1.3854003745   -0.7275713247   -1.3175793226
     N    -0.3804509861   -1.6990516326    0.9931985710
     C    -1.7615820877   -2.1636881531    0.6102986188
     C    -1.8568620086   -2.0977865856   -0.9027082145
     H    -2.8762618868   -2.2842035478   -1.2524447699
     H    -1.1955162296   -2.8297214038   -1.3758411800
     H    -2.4793640074   -1.4857912440    1.0822117640
     H    -1.9530467350   -3.1737825977    0.9838805656
     H    -2.1503131819   -0.0559335434   -1.1852518749
     H    -1.1943642436   -0.7157761684   -2.3235140726
     H     0.2800085839   -2.4719061380    0.8537764855
     H    -0.3571064324   -1.5074467252    1.9987528173
     N     1.7059400960    0.4017479781    1.0078819911
     N     0.7275184231    1.3510167062   -1.3269244452
     C     1.6723878165    2.2503439568   -0.5750256307
     C     2.5852526776    1.3611910503    0.2491080180
     H     3.2084100597    1.9457913652    0.9318358887
     H     3.2451407532    0.7661404977   -0.3891435006
     H     1.0675883446    2.8997054616    0.0652045001
     H     2.2405869875    2.8845873427   -1.2615528981
     H     1.3257540505    0.8730174109    1.8367228906
     H     2.2715440012   -0.3672155284    1.3785466566
     H     1.2082581066    0.9713062150   -2.1499702971
     H    -0.0406776442    1.9126821805   -1.7050791718
