10
-1.6586762973480591e+03 frame 51   xyz file generated by TeraChem
    Co     0.7826404430   -1.1537314457    0.8921654781
     C     3.4697875086   -0.0112880950   -0.1023627289
     N     3.2499999815   -0.9705147055    0.5147999063
     C     3.6668404609    1.2106243165   -0.8701194181
     H     4.4806496995    1.8070530858   -0.4461967887
     H     2.7269139231    1.7727397747   -0.8130101790
     H     3.8943295185    0.9745073662   -1.9141976059
    Cl     0.1780139340   -2.6517627876   -0.7366224903
    Cl     0.4250922224    1.1306183241    0.5188168082
    Cl     0.5248607735   -2.1081805539    2.9541135591
