25
-1.0753341699781849e+03 frame 134   xyz file generated by TeraChem
    Cr     0.3498869116   -0.0956519192    0.3941580116
     C     2.2847408534    0.6664620392   -2.0501034066
     O     1.7534409493    0.4057367110   -0.9669677795
     H     3.3644640160    0.8632141165   -2.0894774342
     H     1.6981280281    0.7077678117   -2.9788522324
     C     1.3767462768   -2.9343018860   -0.2378381295
     O     0.5347928466   -2.0774306810    0.0547244905
     H     1.0562040765   -3.9748661205   -0.3726466410
     H     2.4392069088   -2.6856169641   -0.3644311091
     C     0.0090717210    2.9974004823    0.4248283239
     O     0.0503844824    1.8524599980    0.8865126040
     H     0.1166103076    3.1939082771   -0.6502072354
     H    -0.1414723361    3.8456435192    1.1042166403
     C    -2.8308546122   -1.2233394748    4.0217816341
     C    -2.8799283424   -1.9123571750    2.7817916620
     C    -1.9649519611   -1.5636259548    1.7976903713
     N    -1.0385147880   -0.5826002629    1.9659485612
     C    -0.9958198515    0.0840592033    3.1453608007
     C    -1.8569147851   -0.2024494095    4.1992293589
     S    -3.8873807041   -1.5392760539    5.3604481908
     H    -3.6031609758   -2.6977754931    2.5822219386
     H    -1.9688029453   -2.0848130379    0.8462130605
     H    -0.2546783650    0.8693145166    3.2466670930
     H    -1.7715684342    0.3538167114    5.1291263278
     H    -4.6314856574   -2.5288805268    4.8009725034
