11
-2.0785816601375095e+03 frame 64   xyz file generated by TeraChem
    Co     0.1546575244    0.3767218951   -0.2185962056
     N     2.0173676808    0.0748358375    0.0343296288
     C     3.0258755231   -0.5036893102    0.2835767408
     S     4.4353598011   -1.2269038482    0.6117523796
     N    -0.3280476714   -0.8450750519   -1.5964547509
     C    -0.8723420378   -1.8577056899   -1.9081364721
     S    -1.5855599954   -3.2112407355   -2.4314382214
     N    -0.3785684738    2.0910204920   -0.8565553823
     C    -1.0365370491    3.0041156307   -1.2375749748
     S    -1.8827799462    4.2819296954   -1.7594627745
    Cl    -0.8447017316    0.0634299980    1.7581259079
