53
-1.2335428433062416e+03 frame 154   xyz file generated by TeraChem
    Cr    -0.1159641167    0.0287908714   -0.2088051982
     N    -0.8866720193   -1.4716243309   -1.2371322032
     N    -0.6181309694   -1.1536141810    1.3027817515
     C    -0.9681751368   -1.5065817188   -2.5896693208
     H    -0.5437025254   -0.6647613854   -3.1298097638
     C    -1.5594772819   -2.5652958478   -3.2563025574
     H    -1.6025343944   -2.5505883606   -4.3407362236
     C    -2.0925166897   -3.6475481351   -2.5292329019
     C    -1.9901820322   -3.5921721587   -1.1217113183
     H    -2.3876206334   -4.4096711892   -0.5296263981
     C    -1.6690085975   -3.2079978750    1.9406569329
     H    -2.1615193133   -4.1336340440    1.6630069808
     C    -1.4768021435   -2.9158332939    3.3077778410
     C    -0.8335071591   -1.7013033994    3.6233183307
     H    -0.6558755390   -1.4190749885    4.6564633494
     C    -0.4192641675   -0.8551854828    2.6112991576
     H     0.0830536667    0.0833753183    2.8312546571
     C    -1.3943675128   -2.5095835678   -0.4951041638
     C    -1.2403636068   -2.3271628521    0.9598124020
     C    -1.9413185209   -3.8488332666    4.3803285445
     C    -2.7609441271   -4.7977185166   -3.2127209945
     H    -2.3810234626   -4.9435550640   -4.2272947885
     H    -3.8394901461   -4.5955360657   -3.2961812173
     H    -2.6492988843   -5.7280030020   -2.6486732905
     H    -2.3385557928   -4.7814746554    3.9751934809
     H    -2.7272684136   -3.3714174487    4.9816230805
     H    -1.1226662079   -4.0848459528    5.0713476999
     N     1.8256833775    0.1633694578   -0.5152667576
     N    -0.0138711808    1.9898846981   -0.5926715484
     C     2.6897895932   -0.8803554901   -0.4543094376
     H     2.2623271403   -1.8522436854   -0.2321941417
     C     4.0462788419   -0.7165662801   -0.6640394977
     H     4.6986346498   -1.5822997670   -0.6067441392
     C     4.5675446482    0.5613568804   -0.9480232613
     C     3.6495750831    1.6303212101   -1.0106988647
     H     4.0136773845    2.6276244932   -1.2319576856
     C     1.4649593563    3.8113069568   -1.0816485039
     H     2.4681899708    4.1797118275   -1.2658614324
     C     0.3860606379    4.7234179329   -1.0933259568
     C    -0.9001165684    4.2042497796   -0.8421246878
     H    -1.7692158879    4.8544942121   -0.8326767498
     C    -1.0624896317    2.8530120235   -0.6003709337
     H    -2.0444052401    2.4311717854   -0.4014320651
     C     2.2952792612    1.4234533179   -0.7940762373
     C     1.2517276692    2.4650666906   -0.8349555055
     C     0.5991514961    6.1753141396   -1.3789121051
     C     6.0334045587    0.7762403455   -1.1549562904
     H     6.4744182100   -0.0346559991   -1.7438053739
     H     6.5459182052    0.7758231069   -0.1818954217
     H     6.2458503278    1.7296387373   -1.6437011142
     H     1.6266401587    6.4871077243   -1.1764147915
     H    -0.0884620219    6.8022408061   -0.8030914073
     H     0.3954875833    6.3734672555   -2.4421039817
