13
-1.7748810496584501e+03 frame 48   xyz file generated by TeraChem
    Cr     0.2096133790    0.2837389937   -0.0146913619
     N     1.9382241329    0.0657482252    0.2148949586
     C     3.1230947059   -0.2154834035    0.4344932184
     S     4.6179545259   -0.5134000241    0.6918178018
     S    -0.2049880463   -1.8450717759   -1.1703362105
     H     0.5204561334   -1.6728215261   -2.2997684492
     H    -1.4020111091   -1.6912543826   -1.7808057931
     S    -1.5217866034    2.0178204848   -0.7917162742
     H    -1.3298897685    2.1069157447   -2.1279094664
     H    -2.7102919222    1.3787028538   -0.8780622760
     S    -0.9453102112   -0.0227636114    2.1460647063
     H    -0.4665561980    1.0356430369    2.8419103086
     H    -0.1277607441   -0.9259452764    2.7341572742
