23
-5.7719829856190643e+02 frame 6   xyz file generated by TeraChem
    Fe     0.2479697935    0.4243666025   -0.1678849091
     C     3.2461538816    0.0604507944    0.2344604386
     N     2.0755776699    0.1290956774    0.1319636351
     C     4.6755071049   -0.0085961144    0.3669044186
     H     4.9599247316    0.0072888768    1.4338817741
     H     5.1386777064    0.8545770432   -0.1464330700
     H     5.0509147991   -0.9390438773   -0.0976425782
     C    -0.4697468388   -1.8344150667   -2.0367446956
     N    -0.2055439359   -0.9729715657   -1.2845184781
     C    -0.7909850918   -2.8866883822   -2.9661975381
     H     0.1375267612   -3.3513040058   -3.3425686787
     H    -1.3605886040   -2.4731380238   -3.8172135903
     H    -1.4021171835   -3.6571056286   -2.4624166049
     C    -1.7558347024    2.5666048372   -0.9808460677
     N    -1.0480542593    1.6955801218   -0.6264742943
     C    -2.6132339861    3.6396948270   -1.4033617760
     H    -2.4033285519    3.8999101465   -2.4560298448
     H    -2.4450499283    4.5276584423   -0.7666096219
     H    -3.6713044182    3.3317394854   -1.3093572142
     N    -0.4160764228   -0.0803615285    1.5743580994
     H    -0.2719126597    0.6812382341    2.2630810711
     H    -1.4299679969   -0.2828581065    1.5418266946
     H     0.0659214970   -0.9217760482    1.9337660717
