28
-5.4272664064285732e+02 frame 45   xyz file generated by TeraChem
    Fe     0.1849523138    0.2887945953   -0.0313591517
     C     3.0532765204   -0.8578349714    0.0387120784
     N     1.9340607757   -0.5122477272    0.0382870202
     C     4.4295462594   -1.2800361363    0.0386689042
     H     4.8018517258   -1.3465570535    1.0719951079
     H     5.0394197196   -0.5515233475   -0.5182500702
     H     4.5178966993   -2.2649056778   -0.4449963627
     C    -2.0683148415   -0.8489609126   -1.7011384641
     N    -0.6279168757   -0.9652005766   -1.2806795318
     H    -0.0295697794   -0.9106972521   -2.1219192450
     H    -0.4568434449   -1.9077340889   -0.9012620832
     H    -2.2284998014    0.0845190917   -2.2419917995
     H    -2.7254284770   -0.9297138217   -0.8338356632
     H    -2.2865709507   -1.6856946689   -2.3795716586
     C    -2.0798407629    2.4259078571    0.0906203271
     N    -0.7049958050    2.0236000215   -0.4065451395
     H    -0.0380334139    2.7359780202   -0.0641276043
     H    -0.6911941449    2.1547169254   -1.4297640089
     H    -2.0696184299    2.4834619671    1.1797584378
     H    -2.8227810273    1.7102981102   -0.2631602747
     H    -2.3202426504    3.4165232796   -0.3113770715
     C    -1.7839293250   -0.6240977407    2.0485909209
     N    -0.3839961990   -0.1403442495    1.7806273317
     H     0.2856628397   -0.8449154038    2.1207634201
     H    -0.2017441173    0.7039578405    2.3467304515
     H    -1.9358967448   -1.5878811967    1.5610204954
     H    -2.5108537766    0.1167523457    1.7150678694
     H    -1.8927340835   -0.7590269542    3.1336718167
