41
-1.1349415479870263e+03 frame 66   xyz file generated by TeraChem
    Co     0.1502473558   -0.1604811244   -0.2040154354
     N    -0.7351948050   -1.5093955640   -1.4914030277
     N    -1.1977730738   -1.0468178488    1.0836890200
     C    -0.4465463591   -1.6805733667   -2.7883391782
     H     0.3343699861   -1.0520225815   -3.2063671187
     C    -1.1091083185   -2.6247589731   -3.5952488310
     H    -0.8364963689   -2.7234756344   -4.6413763003
     C    -2.1057848645   -3.4127926080   -3.0222193693
     H    -2.6395052525   -4.1517565348   -3.6127087581
     C    -2.4113720516   -3.2388166984   -1.6710399943
     H    -3.1852708974   -3.8469597677   -1.2183110453
     C    -2.9265521356   -2.7236403557    1.2635514658
     H    -3.5343823123   -3.4978018490    0.8108489838
     C    -3.1005542553   -2.4179808944    2.6146921613
     H    -3.8393237616   -2.9519600681    3.2051892247
     C    -2.3128691692   -1.4209682600    3.1876519694
     H    -2.4116646853   -1.1483442198    4.2337692462
     C    -1.3689964580   -0.7581356739    2.3806202835
     H    -0.7407075372    0.0230632566    2.7985056351
     C    -1.7128391223   -2.2768453824   -0.9142770119
     C    -1.9648762576   -2.0247918901    0.5066919027
     N     2.1868521972    0.0368516976    0.0866322428
     N     0.3495606468    1.8760986743   -0.4933176023
     C     3.0527885094   -0.9424608785    0.3796903319
     H     2.6441937117   -1.9441683071    0.4722776057
     C     4.4289989367   -0.7107370582    0.5623384676
     H     5.0874207286   -1.5408826081    0.7985414136
     C     4.9105682484    0.5907865754    0.4331150747
     H     5.9659837507    0.8096388946    0.5664674354
     C     4.0133583564    1.6161494043    0.1280674852
     H     4.3806475979    2.6302170825    0.0258455898
     C     1.9304940400    3.7012580235   -0.5323897158
     H     2.9448113896    4.0675448180   -0.4290804278
     C     0.9061574157    4.5995819660   -0.8376688633
     H     1.1259582816    5.6549045607   -0.9701914455
     C    -0.3956619390    4.1191971359   -0.9682160673
     H    -1.2250348952    4.7785094956   -1.2046467570
     C    -0.6287744201    2.7430774503   -0.7865867463
     H    -1.6308204587    2.3355140316   -0.8801497872
     C     2.6454585221    1.3217833583   -0.0427103874
     C     1.6348173496    2.3335070379   -0.3627392752
