27
-7.8999559557679424e+02 frame 57   xyz file generated by TeraChem
    Cr    -0.2009789792   -0.2017445534    0.0334603260
     C     4.4827700039    0.7496068582   -0.3466813507
     C     3.6644864503    0.6744533352   -1.4863558285
     C     2.3236883800    0.3654241903   -1.3286319621
     N     1.7750462004    0.1306365653   -0.1114260871
     C     2.5620158604    0.2067496406    0.9887924111
     C     3.9127877298    0.5103961785    0.9127614904
     C     5.8744719401    1.0629298531   -0.4711749971
     H     4.0675727607    0.8597170500   -2.4753583535
     H     1.6623741179    0.3143327078   -2.1871323048
     H     2.0763266186    0.0157611068    1.9382384705
     H     4.5089923006    0.5610938591    1.8165718388
     N     7.0048978621    1.3118699593   -0.5757269400
     C    -1.0656315958   -3.7907738810   -3.0107764853
     C     0.0971374061   -3.7876494465   -2.2222974576
     C     0.3307469049   -2.7108017565   -1.3837335773
     N    -0.5207321285   -1.6617754094   -1.3001844740
     C    -1.6456345789   -1.6629990432   -2.0543880928
     C    -1.9493163211   -2.7043818410   -2.9183419195
     C    -1.3422492021   -4.8842747998   -3.8928172427
     H     0.8001692627   -4.6117741513   -2.2601329859
     H     1.2088739708   -2.6756031274   -0.7482987371
     H    -2.3037654929   -0.8068958824   -1.9556427443
     H    -2.8585259919   -2.6712733325   -3.5076521615
     N    -1.5619816037   -5.7710624540   -4.6112229222
     I    -1.1458583273    2.0227517340   -0.8106669611
     I    -0.9476320777   -1.2513108718    2.2422737114
