31
-9.2797599560577498e+02 frame 43   xyz file generated by TeraChem
    Cr     0.2932465561   -0.3195172615   -0.3606200762
     O    -0.7531867292   -1.3651729848   -1.6774203509
     C    -1.5880925018   -2.2002070075   -1.0780337962
     C    -1.5874561678   -2.1970805705    0.3682664043
     C    -2.4543840229   -3.0619305602    1.0501175101
     C    -3.3283953195   -3.9348016289    0.3637048888
     C    -3.3207369839   -3.9288006222   -1.0326270514
     C    -2.4600029370   -3.0705772336   -1.7461786282
     O    -0.7489351079   -1.3619063790    0.9613790411
     H    -2.4384449890   -3.0437845725    2.1417582134
     H    -3.9896967973   -4.5979349793   -1.5790372594
     H    -2.4556475076   -3.0680237145   -2.8369659995
     C    -4.2504501587   -4.8527732918    1.1360615524
     H    -4.9453482338   -4.3023245516    1.7926806462
     H    -3.7032673433   -5.5509415786    1.7920495433
     H    -4.8645278309   -5.4633583314    0.4589040073
     O     2.2385293236   -0.1723595163   -0.0418722222
     C     2.6721547235    1.0696285419   -0.1895245890
     C     1.6815453169    2.0598610759   -0.5428292036
     C     2.0808710339    3.3920451696   -0.7148116982
     C     3.4266894559    3.7911193942   -0.5500182517
     C     4.3752526055    2.8254657936   -0.2068260379
     C     4.0028038308    1.4777120825   -0.0279308384
     O     0.4392817937    1.6255748364   -0.6821105188
     H     1.3166642503    4.1247352776   -0.9819907965
     H     5.4199005522    3.1179311335   -0.0762989407
     H     4.7461178083    0.7253471939    0.2389676177
     C     3.8222586600    5.2384710594   -0.7445961900
     H     3.2946869255    5.9202082477   -0.0560911893
     H     3.6025858908    5.6065629187   -1.7612406894
     H     4.8990092044    5.3833105925   -0.5769598928
