20
-5.4311314090033170e+02 frame 64   xyz file generated by TeraChem
    Co    -0.0917541916   -0.7109903329    0.5829161891
     C     1.6440460148   -0.3055524608    0.3430464122
     N     2.7604314556   -0.0266120316    0.1857811308
     C     5.0448011669   -0.8150795138    0.5842301520
     C     5.4943270977   -0.7422348473    1.9067993927
     C     6.3034642308   -1.7522582830    2.4273635740
     C     6.6638440173   -2.8392509330    1.6288337950
     C     6.2161838501   -2.9152187067    0.3082658349
     C     5.4089244562   -1.9051384471   -0.2138442177
     H     5.2125744672    0.1032949208    2.5297945330
     H     6.6511597744   -1.6895957819    3.4543669064
     H     6.4955377494   -3.7589137137   -0.3159516816
     H     5.0602668108   -1.9651190861   -1.2420567504
     H     7.2937443590   -3.6257259009    2.0346438216
     C     4.1564200137    0.2770855286    0.0217167801
     H     4.3246463174    0.4183183548   -1.0507582985
     H     4.3326979101    1.2344888949    0.5218575290
     I    -0.1880436794   -2.4212024961   -1.2667230040
     I    -0.8219075195    1.4735790516    1.5888441632
     I     0.2740071614   -2.1775616438    2.6133539019
