8
-2.1427229056011873e+02 frame 67   xyz file generated by TeraChem
    Fe    -0.0895108228    0.1559311516   -0.0001932924
     N     1.8824387925   -0.0008570799   -0.0002172823
     H     2.2872436191    0.4417898537    0.8293347235
     H     2.1494335528   -0.9896838374   -0.0001275566
     H     2.2874735127    0.4417509323   -0.8296798534
     I    -0.8051305643   -1.3878701287   -1.9415455290
     I    -0.1643837805    2.7248816480   -0.0000065460
     I    -0.8056565940   -1.3860714528    1.9423950352
