11
-4.5797310267289561e+02 frame 59   xyz file generated by TeraChem
    Co     0.3001082812   -0.3076129216   -0.1669524541
     N     2.4444822488    0.0001333186    0.0244702951
     H     2.3535132816    0.9915308472   -0.2119844038
     H     2.7587313752   -0.0832550438    0.9896831757
     H     3.1359555558   -0.4420079308   -0.5769937886
     N    -1.2424661183   -1.1788169335   -1.4291100822
     H    -1.0032292274   -1.6362055595   -2.3063660356
     H    -1.5698549804   -1.8778294148   -0.7607307043
     H    -1.9958574994   -0.5178315488   -1.6124989409
     F     0.3537986395    1.4909620625   -0.4763648299
     F    -0.2316860757   -1.5502925821    1.0377940030
