9
-5.5568236336787413e+02 frame 35   xyz file generated by TeraChem
    Mn     0.0003124519    0.0008140306   -0.0013605760
     C     1.8652800710   -0.9351259074    0.3772207073
     O     2.8518987360   -1.4265481315    0.5761303732
     C     0.2870788720   -0.3128152887   -2.0891321102
     O     0.4394263521   -0.4788505535   -3.1863370521
     C    -1.8665390304    0.9346038611   -0.3749703536
     O    -2.8546774143    1.4236342609   -0.5722294907
     C    -0.2862538217    0.3141205014    2.0865894620
     O    -0.4366379333    0.4801174860    3.1840646915
