21
-6.1684074455108316e+02 frame 4   xyz file generated by TeraChem
    Fe    -0.2659323944    0.0744517399    0.0467922850
     C     2.7169813235    0.5012088405    0.4703808150
     N     1.5747602876    0.3203704835    0.2917819070
     C     4.1242020246    0.7221010985    0.6915084654
     H     4.3117990002    0.8739613749    1.7672968028
     H     4.4583306941    1.6109843176    0.1336997322
     H     4.6950360947   -0.1575043178    0.3498156185
     C    -1.0966119805   -2.0027668955   -2.0296349895
     N    -0.7866068520   -1.2014930504   -1.2285757659
     C    -1.5002751050   -2.9774603818   -3.0044839955
     H    -0.6056677581   -3.4309050952   -3.4682160017
     H    -2.1050348328   -2.4954201339   -3.7910271572
     H    -2.0934692879   -3.7714942499   -2.5204004003
     C    -0.6542986200    2.5841992483   -1.6134524003
     O    -0.6361399878    1.7501053662   -0.6934706054
     H    -1.0979634756    3.5716953055   -1.3999007494
     H    -0.2445926173    2.3551373648   -2.6097183865
     C    -0.6485932084   -1.5882465487    2.5545696203
     O    -0.6347136135   -0.6661057634    1.7227340908
     H    -1.0927049353   -1.3793611013    3.5428573659
     H    -0.2346624152   -2.5821293711    2.3228733166
