25
-6.7494148570864195e+02 frame 66   xyz file generated by TeraChem
    Co    -0.0036610408   -0.0002316498   -0.0023755356
     C     1.7067373111    0.3392165788   -0.8537315163
     N     2.7246860334    0.5466692632   -1.3618207593
     C     3.9874815285    0.8059335444   -1.9893951418
     H     4.2532295920   -0.0575923310   -2.6088715138
     H     4.7375597303    0.9447886339   -1.1988236548
     H     3.8981908315    1.7154881860   -2.5921775948
     C     0.2555739919   -1.9009180203   -0.2911261125
     N     0.4056839758   -3.0350800534   -0.4601661587
     C     0.5893574296   -4.4415055979   -0.6711453051
     H    -0.3391012678   -4.9599061443   -0.4114227829
     H     1.4075346280   -4.7789069010   -0.0202746528
     H     0.8548429323   -4.6026503907   -1.7218569169
     C    -0.2611061923    1.9003425709    0.2891567171
     N    -0.4086595663    3.0343443989    0.4615479813
     C    -0.5864786213    4.4409939419    0.6754789600
     H    -1.2375608438    4.5847055054    1.5431482901
     H    -1.0440304377    4.8676004400   -0.2272002973
     H     0.3983404755    4.8934948630    0.8412289541
     C    -1.7140069329   -0.3383180965    0.8491986213
     N    -2.7322530829   -0.5446082588    1.3571772766
     C    -3.9945632238   -0.8013302101    1.9868019610
     H    -4.4711762795    0.1550052200    2.2222790941
     H    -3.8132043719   -1.3881390480    2.8954601890
     H    -4.6142899185   -1.3796444119    1.2888020920
