25
-9.3860441614842796e+02 frame 95   xyz file generated by TeraChem
    Fe     0.1985049887    0.5329737737    0.5002095918
     N     1.3382869961    1.1961224564    2.0737895830
     H     1.2172643489    2.1983864577    2.2645965363
     H     1.1573471401    0.7365373186    2.9713334425
     H     2.3464069948    1.0743699403    1.9171166067
     N    -0.8906635872   -0.0793235627   -1.1211869047
     H    -0.3037403257   -0.4297759550   -1.8883509404
     H    -1.5575348173   -0.8329701189   -0.9339780868
     H    -1.4508609334    0.6749805376   -1.5363221722
     N     1.0846788533    1.9360937981   -0.6886793990
     H     1.3998334171    1.5721048344   -1.5953907124
     H     0.4558852504    2.7172004647   -0.9161713474
     H     1.9164038861    2.3792311884   -0.2857512771
     C    -2.0574571142   -2.6918684661    3.3897405292
     C    -2.5848971070   -1.3868940032    3.2108190761
     C    -1.9080871156   -0.5092740777    2.3712503163
     N    -0.7650823099   -0.8466969231    1.7162915174
     C    -0.2598864928   -2.0935140027    1.8863314467
     C    -0.8626741154   -3.0445033665    2.7058578618
     S    -2.7779296969   -3.9134809144    4.3972793835
     H    -3.4945318569   -1.0535313477    3.7029558137
     H    -2.2977089469    0.4931706751    2.2176927001
     H     0.6511534535   -2.3442740137    1.3505384410
     H    -0.4125075028   -4.0294932374    2.8036277358
     H    -3.8491141643   -3.2031501538    4.8400257029
