49
-2.3653871282108762e+03 frame 50   xyz file generated by TeraChem
    Cr    -0.0919629387    0.0199419275    0.0304648345
     C     4.6198525456    0.8066013178    0.6078171484
     C     3.8068040399    1.7036494799   -0.1080704648
     C     2.4526774876    1.4381378294   -0.2245502288
     N     1.8706587660    0.3427153144    0.3373001439
     C     2.6585020418   -0.5235694471    1.0338762306
     C     4.0202744341   -0.3302600154    1.1848928134
     C     6.0206521348    1.0407414091    0.7472118308
     H     4.2271378405    2.5928615577   -0.5656296954
     H     1.8029896347    2.1131582887   -0.7713316368
     H     2.1721445543   -1.3878117181    1.4748040024
     H     4.6118067580   -1.0468721497    1.7449095392
     N     7.1628655622    1.2297549385    0.8611409639
     C    -0.7972856270   -3.4164769789   -3.2334327001
     C     0.4250886672   -3.3037263039   -2.5230467175
     C     0.5982932960   -2.2866080825   -1.6138024809
     N    -0.3632863239   -1.3466601413   -1.3542503940
     C    -1.5485857707   -1.4481979965   -2.0393655040
     C    -1.7937856814   -2.4411994492   -2.9548334852
     S    -1.1575507105   -4.6376457694   -4.4023478090
     H     1.2369975691   -4.0058426896   -2.6819738388
     H     1.5321819539   -2.1946374118   -1.0691540258
     H    -2.2988121109   -0.6912519674   -1.8329792981
     H    -2.7523473482   -2.4651390087   -3.4640713634
     H     0.0218603373   -5.2919206032   -4.3393552344
     C    -2.1606447072    4.0131474171   -1.6139769201
     C    -1.5034698932    3.1202359926   -2.5016856831
     C    -0.9400073917    1.9624158014   -2.0198092249
     N    -0.9745890109    1.6159798476   -0.6933757352
     C    -1.6028734755    2.4779536684    0.1716449031
     C    -2.1925589807    3.6467202121   -0.2419571780
     S    -2.9155726302    5.4961845210   -2.0804033842
     H    -1.4372199778    3.3301157026   -3.5643866493
     H    -0.4410958608    1.2708333118   -2.6918984489
     H    -1.6258898972    2.1925494795    1.2190672933
     H    -2.6807692065    4.2800116083    0.4922857037
     H    -2.6415132956    5.4225880141   -3.4004304506
     C    -1.6808756370   -1.3551844097    4.3313917137
     C    -2.2530150543   -1.8354371766    3.1252978786
     C    -1.7333603135   -1.4397020845    1.9155833469
     N    -0.6595998953   -0.5951867094    1.8050055254
     C    -0.1016873046   -0.1261849151    2.9675288484
     C    -0.5749040942   -0.4709528975    4.2094648447
     S    -2.2252551575   -1.7638538638    5.9202401839
     H    -3.0973188246   -2.5169386489    3.1336331528
     H    -2.1622110381   -1.8079235929    0.9883848952
     H     0.7425899733    0.5471441617    2.8663540820
     H    -0.0902772473   -0.0619659793    5.0907567624
     H    -3.2321917643   -2.5849266250    5.5530079231
