29
-6.5596178096042547e+02 frame 45   xyz file generated by TeraChem
    Fe    -0.2384503630    0.0847822707   -0.2145340949
     N     1.7423186313   -0.0111535428   -0.9970159655
     H     2.3478399073    0.7333891893   -0.6328237648
     H     2.2462185124   -0.8824917813   -0.7981500368
     H     1.7879445254    0.0920517739   -2.0178222949
     N    -1.2172059758   -1.3698588898   -1.4376172376
     H    -1.4286254369   -1.0339258166   -2.3843748350
     H    -0.6928338806   -2.2410142219   -1.5758343306
     H    -2.1226039171   -1.6666383048   -1.0566167126
     N    -1.0867750908    2.0226442355   -0.3983623084
     H    -0.9155613973    2.4373843929   -1.3226566328
     H    -2.1070523920    2.0440606552   -0.2874304417
     H    -0.7286523113    2.7153583648    0.2689177995
     C    -0.4116995258   -0.4951916447    1.9060534902
     N    -0.6035882497   -0.8317859640    3.0035780317
     C    -0.0628465554   -1.3055688323    5.4212277713
     C     1.2823923797   -0.9563015937    5.3101266846
     C     2.0907657269   -1.0336779621    6.4410959711
     C     1.5506645869   -1.4675506263    7.7164886500
     C     0.1988251275   -1.8185491915    7.8304113112
     C    -0.6023320998   -1.7426026634    6.7065767543
     H     1.7046465012   -0.6300562008    4.3661471117
     H     3.1434474283   -0.7691966701    6.3844620266
     H    -0.2109723548   -2.1436742606    8.7817050731
     H    -1.6544836371   -2.0118114346    6.7730856482
     H     2.2119506598   -1.5153553134    8.5784922996
     C    -1.0664236637   -1.2825856575    4.2899605336
     H    -1.9152764193   -0.6380804214    4.5635980752
     H    -1.4764356227   -2.2936586432    4.1448483374
