11
-1.0685817665488303e+03 frame 51   xyz file generated by TeraChem
    Mn     0.0223208104    0.1787825469   -0.3111021174
     O     2.0493572362   -0.0685874768   -0.1934124858
     N     4.0667919447   -0.4501689403    1.1076518697
     C     3.0713790977   -0.2662718783    0.4959825216
     O    -0.5521366479   -1.1740341365   -1.7456914981
     N    -1.8271915218   -3.1564277829   -2.3416438027
     C    -1.2156723025   -2.1945173638   -2.0259786870
     O    -0.2422033631    1.9740828152   -1.2524807112
     N    -1.0497023916    4.2666731146   -1.2817625350
     C    -0.6650103639    3.1489384233   -1.2446152709
    Cl    -1.0700125788   -0.1131526263    1.7934851664
