21
-5.0099008486594590e+02 frame 41   xyz file generated by TeraChem
    Fe     0.3495148972   -0.3726857310   -0.3922685079
     C     3.1772825279    0.4547598645    0.3575651188
     N     2.0516217478    0.2041253056    0.1472566516
     C     4.5567905169    0.7596904246    0.6148576088
     H     4.7322104995    0.8095745696    1.7016704705
     H     4.8215255180    1.7250817102    0.1558072343
     H     5.1947918906   -0.0315042004    0.1871414671
     C    -1.3111833587   -2.1279881762   -2.2373279253
     N    -0.7611993580   -1.4185202303   -1.4828227153
     C    -1.9819504446   -2.9982220144   -3.1614867721
     H    -1.2349398796   -3.5591853122   -3.7476828567
     H    -2.6064337645   -2.4060882359   -3.8491778484
     H    -2.6153322857   -3.7126255445   -2.6117555308
     N    -0.4291374398    1.3642147726   -0.7071250965
     H    -1.4593270162    1.3351237885   -0.7409022539
     H    -0.1580610857    2.0646713644   -0.0005073880
     H    -0.1107688459    1.7262407414   -1.6229961755
     N    -0.3052918782   -0.9218753143    1.3375362549
     H    -0.1303179693   -0.2289148385    2.0810101677
     H    -1.3166305276   -1.1239056513    1.3315033981
     H     0.1713408098   -1.7933449290    1.6274172713
