26
-1.9820605088526372e+03 frame 57   xyz file generated by TeraChem
    Co    -0.0898595557    0.3268387453    0.1739028995
     N     1.7940964075    0.5838143653    0.4631085169
     C     2.9610036321    0.7568090438    0.6066211133
     S     4.5453248535    0.9876794611    0.8123328061
     N    -0.5838081199   -0.9619252518   -1.1607767506
     C    -0.8729226786   -1.7422835592   -2.0093668126
     S    -1.2717599775   -2.8089622187   -3.1527847064
     N    -0.9895927064    2.0178629265   -0.0837263887
     C    -1.5184428130    3.0628592424   -0.2763299172
     S    -2.2443622355    4.4857943904   -0.5298463210
     C    -0.8171368093   -0.4753286792    1.9573528230
     N    -1.2247028302   -0.9326192525    2.9452759538
     C    -0.9184217826   -2.7857593148    4.5168651334
     C    -1.3258425795   -4.0323602557    4.0296329411
     C    -0.5965615047   -5.1790561939    4.3434789493
     C     0.5422921063   -5.0843449910    5.1458628362
     C     0.9507697945   -3.8420897433    5.6352175927
     C     0.2222303638   -2.6946846166    5.3217869415
     H    -2.2126463611   -4.1074543787    3.4047111146
     H    -0.9186052848   -6.1442453684    3.9637129873
     H     1.8342868260   -3.7655710422    6.2621669866
     H     0.5409007942   -1.7277403397    5.7038896845
     H     1.1092631232   -5.9777801119    5.3911783293
     C    -1.7015173946   -1.5371920835    4.1615824998
     H    -1.6239358754   -0.7771533663    4.9452390297
     H    -2.7627145330   -1.7579672328    4.0097222702
