21
-5.0103032929070412e+02 frame 52   xyz file generated by TeraChem
    Fe    -0.0013233299   -0.1107586488   -0.1431908733
     C     3.0526956519    0.2814099984    0.2466218017
     N     1.8915471673    0.1492195442    0.1160783957
     C     4.4658872675    0.4450728359    0.4083680353
     H     4.7065887862    0.5971183752    1.4740111472
     H     4.8090361018    1.3221637695   -0.1662529027
     H     4.9907680903   -0.4532752477    0.0425919723
     C    -0.8364296307   -2.2174470960   -2.2554481807
     N    -0.5415065146   -1.4137234891   -1.4492109767
     C    -1.2015476724   -3.1944890892   -3.2359211469
     H    -0.2944597544   -3.6369249629   -3.6805160665
     H    -1.8002233342   -2.7198694611   -4.0318211059
     H    -1.7996292282   -3.9924721449   -2.7640793476
     N    -0.7959650914    1.7437294808   -0.6730088097
     H    -1.8058185163    1.7078499468   -0.8792364585
     H    -0.6773287286    2.4742920747    0.0452922311
     H    -0.3480622423    2.1147866431   -1.5254093206
     N    -0.7930239415   -0.6463752945    1.7108455740
     H    -1.8013949221   -0.8596521417    1.6743062337
     H    -0.3393540854   -1.4957365125    2.0818826796
     H    -0.6799340024    0.0724525446    2.4417631776
