10
-9.1474654704923728e+02 frame 130   xyz file generated by TeraChem
    Co     0.2688196241   -0.3998220787    0.0243463151
     S     2.6100615055   -0.1414391583   -0.3636473530
     C     3.1869371211    1.4489196377   -0.3007656519
     N     3.7074510678    2.5021676360   -0.2865717944
     C     0.5954639970   -2.3263758625   -0.2766719896
     N     0.7864085953   -3.4690559729   -0.4546443492
     C    -0.0942264945    1.4984110237    0.3382612904
     N    -0.3599885671    2.6223787174    0.5352701269
     C    -1.5590245583   -0.7565720696    0.3049182403
     N    -2.6962318621   -0.9862146173    0.4774611669
