29
-1.5306588982986193e+03 frame 32   xyz file generated by TeraChem
    Cr     0.0534811817   -0.2057560232    0.3055188585
     C     4.7552964304   -1.2297469313    0.1795866082
     C     4.2601285700    0.0742175443   -0.0604588082
     C     2.8918431315    0.3159248395   -0.0150137294
     N     1.9729984975   -0.6700524316    0.2464381285
     C     2.4502062445   -1.9366128766    0.4716079208
     C     3.8037248875   -2.2435920701    0.4523830864
     S     6.4696714253   -1.6662638353    0.1615237930
     H     4.9318281657    0.9072143660   -0.2774425904
     H     2.4909514608    1.3158210021   -0.1915649822
     H     1.6980577404   -2.6986271751    0.6774719715
     H     4.1149830566   -3.2718268793    0.6476823978
     H     6.9466026158   -0.4263175714   -0.1325054150
     C    -1.5206355213   -1.8854276706   -3.9282924156
     C    -1.0197470144   -0.5688462060   -3.8063330823
     C    -0.5639681824   -0.1119599334   -2.5738008909
     N    -0.5755233699   -0.8908704161   -1.4512544068
     C    -1.0675163815   -2.1636474737   -1.5584183485
     C    -1.5380821438   -2.6828532664   -2.7586975547
     S    -2.1262601771   -2.5855921256   -5.4380664519
     H    -0.9844428534    0.1097640660   -4.6609599181
     H    -0.1926460208    0.9050098525   -2.4488996081
     H    -1.0939695527   -2.7508265675   -0.6396392244
     H    -1.9238706252   -3.7042109161   -2.7775095763
     H    -1.9194363029   -1.4883784377   -6.2155535173
     O    -0.2017042890    1.5242821702   -0.0419946232
     H    -0.2559421670    2.1669875743    0.7021924289
     O    -0.7939445460   -1.3419562751    1.3725501624
     H    -0.6632335569   -1.3061127320    2.3490952029
