14
-1.3977523832871634e+03 frame 46   xyz file generated by TeraChem
    Cr     0.1432905547    0.0811120200    0.2129714591
     C     3.2146625251   -0.4021279262   -0.1216514014
     O     1.9759093457   -0.2289718336   -0.0820069784
     H     3.6796139264   -1.1551912890    0.5311697910
     H     3.8204184033    0.2001745648   -0.8142556796
     S    -0.6663490544   -1.5486832568   -1.4233531092
     H     0.0099321875   -1.2043454475   -2.5516205524
     H    -1.8675666070   -1.0677530162   -1.8400755729
     S    -1.0375538549    2.2052063027   -0.2094840163
     H    -0.3907657328    2.6818220965   -1.3063921057
     H    -0.4220147721    3.0337767178    0.6773376992
     S    -1.0255233540   -0.3835859848    2.3402217036
     H    -2.3466613590   -0.5006677391    2.0440120362
     H    -0.8064280841   -1.7108500389    2.5432961320
