49
-1.4650270679929815e+03 frame 54   xyz file generated by TeraChem
    Mn    -0.0507771783   -0.0161600151    0.0364734694
     C     4.5864392562    0.7653300327    0.5890682616
     C     3.7825824797    1.6337062715   -0.1750879114
     C     2.4295585320    1.3708956981   -0.2934601892
     N     1.8397159121    0.2985340580    0.3124416743
     C     2.6173491017   -0.5440305305    1.0564891422
     C     3.9759206096   -0.3452655226    1.2117403485
     C     5.9837501009    1.0003537577    0.7324878245
     H     4.2100735823    2.5017729439   -0.6664976231
     H     1.7876016434    2.0266228593   -0.8706575308
     H     2.1256625819   -1.3895017117    1.5265899726
     H     4.5596572220   -1.0381840818    1.8094178711
     N     7.1263782238    1.1905188460    0.8505420431
     C    -0.7960308567   -3.3987569565   -3.1892522058
     C     0.4335377670   -3.3031497114   -2.5069514335
     C     0.6166913472   -2.2859729124   -1.5877670587
     N    -0.3528224929   -1.3625841011   -1.3226053932
     C    -1.5448544275   -1.4503066324   -1.9850337771
     C    -1.7987042608   -2.4447691227   -2.9101697451
     C    -1.0228321706   -4.4329639118   -4.1416212395
     H     1.2324882961   -4.0129489724   -2.6957173374
     H     1.5544235043   -2.1895550639   -1.0519133782
     H    -2.2930564437   -0.6972946360   -1.7603655847
     H    -2.7583821790   -2.4823093335   -3.4158140038
     N    -1.2096246123   -5.2781827953   -4.9204693112
     C    -2.1774682963    3.8902095736   -1.5783775944
     C    -1.4596223291    3.0549751922   -2.4623236425
     C    -0.8661278197    1.9069639344   -1.9728760860
     N    -0.9460637471    1.5546520866   -0.6549272706
     C    -1.6351528061    2.3630111029    0.2029314937
     C    -2.2596030558    3.5226167157   -0.2207080313
     C    -2.8056170267    5.0777890491   -2.0511333967
     H    -1.3735731729    3.3032189435   -3.5154640995
     H    -0.3130008275    1.2432966558   -2.6304077766
     H    -1.6866574061    2.0576305797    1.2425107437
     H    -2.8042393691    4.1348462523    0.4908557180
     N    -3.3192563687    6.0484919786   -2.4380085034
     C    -1.6917753653   -1.3167119015    4.2727389622
     C    -0.6688542989   -0.3486731523    4.1721851202
     C    -0.1883276036   -0.0028894240    2.9237437990
     N    -0.6773431075   -0.5646196700    1.7780967205
     C    -1.6697228126   -1.4977845451    1.8720705897
     C    -2.1919682884   -1.8961280497    3.0888442519
     C    -2.2053678489   -1.6998609543    5.5444439575
     H    -0.2577547811    0.1204235284    5.0604429128
     H     0.5998560411    0.7348613532    2.8152689593
     H    -2.0321509455   -1.9292248479    0.9451155828
     H    -2.9748855210   -2.6469058499    3.1229634099
     N    -2.6245188640   -2.0121869459    6.5849531558
