27
-7.3441582737613953e+02 frame 75   xyz file generated by TeraChem
    Cr     0.0581746649   -0.1415379603    0.3159104095
     C     4.8503535909   -0.4319631048   -0.2468272568
     C     4.2414142032    0.8120068843   -0.0779406164
     C     2.8591127344    0.8743002118    0.0462457807
     N     2.0866254666   -0.2346527928    0.0016117566
     C     2.6758013795   -1.4401066621   -0.1678976160
     C     4.0521863282   -1.5767465925   -0.2913959307
     H     5.9290237460   -0.5089762403   -0.3430862000
     H     4.8236181553    1.7262755258   -0.0400035706
     H     2.3259348630    1.8089543410    0.1768542077
     H     2.0189645320   -2.3041569958   -0.2038493580
     H     4.4847556190   -2.5627107075   -0.4220818327
     C    -1.7618433135   -2.4756941506   -3.4838179971
     C    -0.7758243548   -1.5010969058   -3.6495938116
     C    -0.2478622878   -0.8838624545   -2.5236511760
     N    -0.6654914040   -1.1908851784   -1.2749320558
     C    -1.6201697188   -2.1347161437   -1.1119986758
     C    -2.1861575211   -2.7974442459   -2.1941624257
     H    -2.1911587937   -2.9762396080   -4.3463300564
     H    -0.4163600319   -1.2216738947   -4.6339474093
     H     0.5251532732   -0.1258524457   -2.6011711090
     H    -1.9075097714   -2.3393364886   -0.0866935023
     H    -2.9478654621   -3.5498703107   -2.0210995834
     O    -0.1056222028    1.6070795133    0.0949748525
     H    -0.9807564277    2.0336691576    0.0762619365
     O    -0.5732831150   -1.2695395047    1.5337428130
     H    -0.3763722625   -1.1653767647    2.4820353537
