31
-2.1770961630399456e+03 frame 92   xyz file generated by TeraChem
    Cr     0.9026112712   -0.8444879518   -0.9322316408
     C     4.8470370979    0.5664102745    1.6422419697
     C     3.6041715956    1.2243610588    1.7933079203
     C     2.5211317367    0.7949075709    1.0440610345
     N     2.5920477321   -0.2370798689    0.1601956712
     C     3.7885203772   -0.8679013061    0.0131391148
     C     4.9216701581   -0.5068003103    0.7212976009
     S     6.2994319492    0.9844625688    2.5125642785
     H     3.4741635440    2.0561307242    2.4786737698
     H     1.5615149692    1.2937186935    1.1522835851
     H     3.8328837330   -1.6872807151   -0.6989114026
     H     5.8474627624   -1.0511329068    0.5591720993
     H     5.7895003652    2.0066561509    3.2381829150
     C    -3.0422172358   -2.2545950817   -3.5063619165
     C    -1.7999666188   -2.9139954369   -3.6563610979
     C    -0.7167231960   -2.4848092157   -2.9072381622
     N    -0.7868789329   -1.4517783358   -2.0245367876
     C    -1.9827180775   -0.8195445388   -1.8785538167
     C    -3.1160641077   -1.1802783211   -2.5866390230
     S    -4.4948732216   -2.6723305261   -4.3765010181
     H    -1.6706376204   -3.7466483053   -4.3408043007
     H     0.2424154642   -2.9847533970   -3.0145157883
     H    -2.0264628911    0.0007259522   -1.1674776012
     H    -4.0413627672   -0.6348007964   -2.4254490963
     H    -3.9855455903   -3.6954519165   -5.1012888849
     S     1.9295214529    0.2391418853   -3.0242337441
     H     0.8780043331    0.7625162510   -3.6901695200
     H     2.3824063962    1.4301400900   -2.5771835609
     S    -0.1231424440   -1.9260025905    1.1610627894
     H     0.9283602671   -2.4549645514    1.8225910902
     H    -0.5833489827   -3.1144105512    0.7146129280
