11
-2.0570224558235286e+03 frame 32   xyz file generated by TeraChem
    Fe    -0.0823844774    0.1509866390   -0.0786771517
     N     1.7956387293   -0.1082090084    0.1925510135
     C     2.9532448803   -0.2785580047    0.4196177402
     S     4.5198009574   -0.5073425965    0.7189530656
     N    -0.7030788513   -1.1567113187   -1.3290269304
     C    -1.1241532492   -1.9886396513   -2.0715769520
     S    -1.6879884558   -3.1096649270   -3.0817407900
     N    -0.3912021187    1.8867389206   -0.8221946195
     C    -0.6068668184    2.9826862288   -1.2385907187
     S    -0.8933264815    4.4618314769   -1.8082699120
    Cl    -1.1215178349   -0.1242776842    1.9044641731
