22
-1.9370689146767158e+03 frame 84   xyz file generated by TeraChem
    Fe     0.1831764511    0.0297645989   -0.1128529896
     N     1.9982110255   -0.2318543383    0.1347111915
     C     3.0897789067   -0.5137229621    0.5725756833
     S     4.5615944853   -0.8682683188    1.1022440092
     N    -0.8435604012   -1.0233610857   -1.2116375890
     C    -1.8631186386   -1.1866440454   -1.8470700428
     S    -3.1707671175   -1.5090171316   -2.7133615039
     N    -0.6297425609    1.6607920947   -0.3202887083
     C    -1.5969607965    2.3295050407   -0.6142854601
     S    -2.8166574191    3.3012781645   -0.9781639693
     C    -1.1762144243   -1.3493318952    4.1645500338
     C    -0.7755495143   -0.0172917560    3.9294113483
     C    -0.3947657891    0.3578682655    2.6441002783
     N    -0.3982691275   -0.5236863776    1.6105592298
     C    -0.7857030293   -1.8084067499    1.8235832105
     C    -1.1791188852   -2.2544065782    3.0826039880
     C    -1.5742753805   -1.7736100523    5.4757098219
     H    -0.7616876539    0.7142745931    4.7356778817
     H    -0.0822688331    1.3740604142    2.4099142418
     H    -0.7824328246   -2.4626688417    0.9536619403
     H    -1.4852746341   -3.2902341998    3.2198286621
     N    -1.8995543599   -2.1200974946    6.5466835279
