38
-1.2072304469191017e+03 frame 28   xyz file generated by TeraChem
    Cr    -0.0101966064    0.1915983953   -0.2406970888
     C     4.6582131754   -0.6837732858    0.1442325142
     C     4.1103966650   -0.4845056565   -1.1383155318
     C     2.7537642171   -0.2455075238   -1.2551770423
     N     1.9320590582   -0.1925141371   -0.1735720641
     C     2.4576819449   -0.3824654141    1.0689067824
     C     3.8064674408   -0.6326555092    1.2614896600
     C     6.0556605611   -0.9337561180    0.3033183518
     H     4.7368372713   -0.5185473359   -2.0229208200
     H     2.2976930468   -0.0900450362   -2.2280892432
     H     1.7725107688   -0.3415637116    1.9100034132
     H     4.1905615345   -0.7850094789    2.2642813194
     N     7.1938051916   -1.1364376469    0.4296919056
     C    -2.4189018411   -2.9029578609   -2.9212492189
     C    -1.1912505620   -3.2709337604   -2.3394440100
     C    -0.4857022532   -2.3271855188   -1.6143273578
     N    -0.9364211878   -1.0545604783   -1.4548586286
     C    -2.1271172845   -0.7000676232   -2.0067224211
     C    -2.8896475506   -1.5884142240   -2.7438010780
     C    -3.1763331866   -3.8488827280   -3.6775555323
     H    -0.8017745228   -4.2771097623   -2.4487671914
     H     0.4577810333   -2.5759841105   -1.1394632288
     H    -2.4621367785    0.3184591598   -1.8378163224
     H    -3.8351315359   -1.2719996099   -3.1703261561
     N    -3.7909027776   -4.6168799482   -4.2979963911
     C    -0.6538865660    4.7927650070   -1.2930809895
     C    -0.3241657195    3.9016594097   -2.3332287153
     C    -0.1571939417    2.5616568515   -2.0366093079
     N    -0.2965082903    2.0764024844   -0.7745650501
     C    -0.6142113701    2.9345734962    0.2343788557
     C    -0.8023320534    4.2886312254    0.0108228252
     C    -0.8358464374    6.1838667598   -1.5620344600
     H    -0.2051880431    4.2538594650   -3.3519834834
     H     0.0906917656    1.8451234673   -2.8136041376
     H    -0.7335570838    2.5111091563    1.2267797874
     H    -1.0620978603    4.9422888308    0.8363810935
     N    -0.9827769371    7.3159999771   -1.7836554690
     F    -0.7316161813   -0.0694662982    1.2789342268
