13
-4.0832475978895025e+02 frame 37   xyz file generated by TeraChem
    Mn    -0.1031825972    0.1257820394    0.0978462150
     O     1.7511829401   -0.0251626443    0.4105138163
     H     2.4696131140    0.4774747639   -0.0615369991
     H     2.1819238228   -0.8262349271    0.8162551519
     O    -0.9719600050   -0.9232585776   -1.2053923575
     H    -0.8941840223   -0.7880164079   -2.1890607457
     H    -1.3339951731   -1.8398443801   -1.0679369361
     O    -0.1320047596    1.7955079496   -0.8029306587
     H     0.4835209883    2.5649218787   -0.6628743553
     H    -0.8972342802    2.1389600609   -1.3398997000
     O    -0.6944317660   -0.7812602847    1.6563749238
     H    -0.2793533363   -0.7012347209    2.5581535272
     H    -1.5779941889   -1.2197522932    1.7884009884
