29
-5.2807780330859396e+02 frame 34   xyz file generated by TeraChem
    Co     0.0579562885    0.0407755632   -0.0244916665
     C     2.8239869632    0.4197677344   -1.3898024640
     N     2.1687289278    0.3431386829   -0.0366783734
     H     2.4055854317    1.1951322729    0.4798744438
     H     2.6297240460   -0.4036035404    0.4913468477
     H     2.3936115714    1.2465122320   -1.9586421402
     H     2.6518407440   -0.5150555507   -1.9263923649
     H     3.9004872888    0.5805629760   -1.2933568587
     C    -2.1380307601   -2.0076003161   -0.9516364775
     N    -0.6785518170   -1.6624761208   -1.0762369941
     H    -0.4707100377   -1.5463416326   -2.0728613543
     H    -0.1387285528   -2.4914150680   -0.8090632045
     H    -2.7414815970   -1.1419418227   -1.2315353093
     H    -2.3565501449   -2.2869151223    0.0806836895
     H    -2.3952534861   -2.8468410158   -1.6022626361
     C    -1.1757582780    2.8681790662    0.2462315076
     N    -0.4889118690    1.9686215257   -0.7459510270
     H     0.3269159110    2.4656517743   -1.1120332797
     H    -1.1060662030    1.8720895830   -1.5580998108
     H    -0.5179735691    3.0280322766    1.1029628590
     H    -2.1046831106    2.3992516237    0.5777920389
     H    -1.4117861080    3.8356956416   -0.2037400647
     C    -0.1492798856   -1.5242555349    2.6505254429
     N    -0.7769289127   -0.3903633924    1.8871913931
     H    -0.7453322818    0.4441392503    2.4798465066
     H    -1.7756274850   -0.5889707618    1.7844362152
     H     0.8985098419   -1.2882258535    2.8453880376
     H    -0.2113556422   -2.4374522409    2.0555925389
     H    -0.6598603228   -1.6839390780    3.6032627540
