45
-1.0961969158423192e+03 frame 71   xyz file generated by TeraChem
    Mn     0.0126608598    0.0309643182    0.0026900431
     C     4.9346414849   -0.5537007910   -0.6440124893
     C     4.2322705866    0.4002338013   -1.3822904614
     C     2.8498961161    0.5339978934   -1.1846790253
     N     2.1538387180   -0.2223277980   -0.3016010530
     C     2.8455788292   -1.1458953246    0.4103877955
     C     4.2274411793   -1.3400633021    0.2684972868
     H     6.0053077463   -0.6805481824   -0.7747880937
     H     4.7328398118    1.0387425645   -2.1033445389
     H     2.2885878762    1.2714646896   -1.7508293464
     H     2.2783785856   -1.7498338610    1.1131930998
     H     4.7251048418   -2.0962394874    0.8675569131
     C    -2.4470509650   -3.2363194828   -2.8834124056
     C    -1.0900471141   -3.4162456020   -2.6080372823
     C    -0.4266515462   -2.4809789057   -1.7969715670
     N    -1.0464414985   -1.4078311854   -1.2532948768
     C    -2.3639655618   -1.2423408302   -1.5257610978
     C    -3.0940087509   -2.1275708459   -2.3343712497
     H    -2.9856319150   -3.9411992678   -3.5100001671
     H    -0.5369731552   -4.2570352436   -3.0148506544
     H     0.6328888351   -2.5933585426   -1.5882668273
     H    -2.8526955336   -0.3810151086   -1.0784659115
     H    -4.1486136138   -1.9420509156   -2.5126352365
     C    -1.9101924291    4.4813782029   -1.2103961486
     C    -1.5189391513    3.5837101859   -2.2057480050
     C    -0.9857391724    2.3408929966   -1.8324312371
     N    -0.8358891514    1.9606454081   -0.5398377852
     C    -1.2267524692    2.8344336449    0.4176913291
     C    -1.7601104868    4.0994350166    0.1242513397
     H    -2.3219895049    5.4528275034   -1.4677909030
     H    -1.6109856206    3.8308392787   -3.2587702286
     H    -0.6644515914    1.6331678047   -2.5916245907
     H    -1.1208380403    2.5134475996    1.4498664227
     H    -2.0541714817    4.7560503678    0.9370335091
     C    -0.6254115429   -0.7140538020    4.9011049938
     C    -1.5057725327   -1.2809539952    3.9777453062
     C    -1.3023865421   -1.0490333388    2.6098696168
     N    -0.2818677987   -0.2955441125    2.1337578663
     C     0.5683217285    0.2501993453    3.0393144637
     C     0.4306573561    0.0645809851    4.4217983327
     H    -0.7576989492   -0.8755696783    5.9669089357
     H    -2.3410914886   -1.8963111320    4.2967090111
     H    -1.9758544117   -1.4830339285    1.8766646643
     H     1.3816301088    0.8551886337    2.6475292668
     H     1.1432136761    0.5280619157    5.0969154069
