52
-1.7269995529820044e+03 frame 67   xyz file generated by TeraChem
    Co    -0.5280899062    0.1505838746    0.5805104045
     N     1.3641430918    0.4343813314    0.8941098791
     C     2.5273533437    0.6021064651    1.0656174443
     S     4.1090389724    0.8317074606    1.3019089185
     C    -0.8022367418   -0.9426228496   -1.1418156473
     N    -0.8837464169   -1.5473544766   -2.1279157047
     C    -2.4047367756   -2.7252689967   -3.6684706845
     C    -2.8626228916   -3.9823951890   -3.2604716493
     C    -4.1674909530   -4.3887101401   -3.5697327444
     C    -5.0146178397   -3.5399953067   -4.2846216287
     C    -4.5597324088   -2.2854225788   -4.6939660579
     C    -3.2552036287   -1.8773785303   -4.3876269401
     H    -2.2026727125   -4.6566967147   -2.7201981250
     H    -4.5112435951   -5.3710791687   -3.2613126734
     H    -5.2092675365   -1.6273180091   -5.2626016849
     H    -2.9007240671   -0.9076436460   -4.7286841511
     H    -6.0217744325   -3.8600690384   -4.5323752158
     C    -0.9836528483   -2.2986923918   -3.3649021153
     H    -0.5748798319   -1.6495598614   -4.1456867156
     H    -0.3140690347   -3.1569072670   -3.2525019260
     C    -1.3923171157    2.0105022719    0.3594263968
     N    -1.8416004513    3.0740015337    0.2477325701
     C    -1.3000874713    5.4726160229    0.3109911465
     C    -1.0199438328    5.9700983027    1.5894637001
     C    -0.0419570943    6.9603986733    1.7619336894
     C     0.6549511234    7.4551730303    0.6590547358
     C     0.3752095487    6.9635496614   -0.6176992699
     C    -0.6018604640    5.9720917883   -0.7927819595
     H    -1.5716099790    5.6044358947    2.4521798278
     H     0.1593293772    7.3483525504    2.7555797590
     H     0.9042787016    7.3535860627   -1.4816396434
     H    -0.8230849221    5.6073329671   -1.7928196860
     H     1.4048786009    8.2286378916    0.7912575663
     C    -2.3720260305    4.4180436300    0.1227536212
     H    -2.8324571699    4.4754615147   -0.8681807191
     H    -3.1652227594    4.5035517024    0.8718274599
     C    -1.3405039168   -0.7959504800    2.2178709845
     N    -1.7594515178   -1.3247037150    3.1612319381
     C    -1.1378083775   -2.6783065043    5.1180258390
     C    -0.8126815673   -4.0104858795    4.8393118307
     C     0.2033202223   -4.6536655104    5.5611586769
     C     0.8941074213   -3.9669697822    6.5607171475
     C     0.5700589964   -2.6387838506    6.8428849873
     C    -0.4459618965   -1.9932410780    6.1227307469
     H    -1.3566413408   -4.5585125421    4.0738252018
     H     0.4410161912   -5.6906196963    5.3453965746
     H     1.0933555481   -2.1032376871    7.6288257582
     H    -0.7039347710   -0.9646820775    6.3628697970
     H     1.6739467022   -4.4683673129    7.1251175031
     C    -2.2499486134   -1.9903126522    4.3527298805
     H    -2.7434363950   -1.2189895330    4.9520870524
     H    -3.0132378563   -2.6984102062    4.0157537475
