53
-1.2335099217442003e+03 frame 73   xyz file generated by TeraChem
    Cr     0.3087443261   -0.2953067205   -0.3021094602
     N    -0.5320404997   -1.5431986466   -1.5671181731
     N    -0.9800015462   -1.1099960855    0.9384496584
     C    -0.2015980937   -1.6706642186   -2.8772290893
     H     0.6016330434   -1.0368362899   -3.2423301139
     C    -0.8529622788   -2.5599596621   -3.7122819547
     H    -0.5547195555   -2.6251073258   -4.7538516770
     C    -1.8941784808   -3.3650881589   -3.2100050932
     C    -2.2242204810   -3.2161287711   -1.8441786069
     H    -3.0249294119   -3.8175285665   -1.4270458638
     C    -2.7399144688   -2.7194315776    1.1667030926
     H    -3.3779783593   -3.4783112633    0.7272521795
     C    -2.8896440728   -2.4063088761    2.5347630836
     C    -2.0377712451   -1.4158956902    3.0660140926
     H    -2.1021270897   -1.1316764042    4.1118086106
     C    -1.1074604291   -0.7959250284    2.2538936073
     H    -0.4404099776   -0.0303050118    2.6399173580
     C    -1.5422291097   -2.3151976375   -1.0437617092
     C    -1.7924604853   -2.0724847043    0.3895296927
     C    -3.9110539123   -3.0897163730    3.3868445274
     C    -2.6090377621   -4.3524041820   -4.0757316063
     H    -2.5972651459   -4.0530037740   -5.1270339407
     H    -3.6438328172   -4.5018184327   -3.7547526185
     H    -2.1046984636   -5.3284838403   -4.0106223974
     H    -4.4226912181   -3.8942660021    2.8554511396
     H    -4.6639960745   -2.3649866379    3.7258504083
     H    -3.4471242650   -3.5015982382    4.2914605065
     N     2.2509707988   -0.1746157689   -0.0231497559
     N     0.4473948435    1.6472006555   -0.5664507460
     C     3.0940563844   -1.2005313949    0.2622554662
     H     2.6493483319   -2.1886382452    0.3331821843
     C     4.4476897996   -1.0015398792    0.4538567479
     H     5.0821111822   -1.8527731011    0.6808736547
     C     4.9897811234    0.2963071699    0.3558136193
     C     4.0963098722    1.3479641744    0.0603434028
     H     4.4834482261    2.3577031767   -0.0187323682
     C     1.9818860605    3.4843612807   -0.6005167306
     H     2.9925220526    3.8638501049   -0.4992226565
     C     0.9406169019    4.3879799364   -0.9016360301
     C    -0.3581687775    3.8547494298   -1.0299143518
     H    -1.2016188118    4.4968496365   -1.2641960051
     C    -0.5683746565    2.5000161362   -0.8586867655
     H    -1.5573407454    2.0617274136   -0.9522445237
     C     2.7441008358    1.1046413067   -0.1254977332
     C     1.7277977780    2.1311799757   -0.4373506028
     C     1.1984500869    5.8514385057   -1.0690200550
     C     6.4519935389    0.5426798189    0.5490476787
     H     6.8039010038    0.0831315227    1.4805017047
     H     6.6949746593    1.6068013169    0.5663103459
     H     7.0219327960    0.0722469505   -0.2643814755
     H     2.2646533113    6.0849295516   -1.0923925347
     H     0.7434254626    6.4082502180   -0.2376540786
     H     0.7315414650    6.2272902805   -1.9870088903
