25
-1.5207654301282373e+03 frame 64   xyz file generated by TeraChem
    Mn     0.1743310719   -0.3666335259    0.0691313923
     C     4.7861890137    0.5873900962   -0.4658053486
     C     3.8787754593    0.7715180732   -1.5119155767
     C     2.5459414778    0.4489885846   -1.3076827999
     N     2.1027564493   -0.0456583561   -0.1263377169
     C     2.9801520654   -0.2248420157    0.8910943181
     C     4.3267894600    0.0825391019    0.7508278844
     H     5.8343901279    0.8375769843   -0.5974982104
     H     4.1925235992    1.1664476307   -2.4718490662
     H     1.8035458867    0.5916382497   -2.0862330652
     H     2.5708001334   -0.6144004746    1.8148062636
     H     4.9966812078   -0.0726028859    1.5894084314
     C    -1.6882486243   -3.4251306541   -3.0326906585
     C    -0.5485552842   -3.7489779709   -2.2925941139
     C    -0.0262704295   -2.8058148195   -1.4212677310
     N    -0.5844931213   -1.5801000336   -1.2748988772
     C    -1.6908617644   -1.2617368900   -1.9899109172
     C    -2.2644400057   -2.1642970692   -2.8758092671
     H    -2.1213071656   -4.1470854930   -3.7181670974
     H    -0.0720752337   -4.7191369623   -2.3798511389
     H     0.8459988597   -3.0176448169   -0.8119417261
     H    -2.1026879621   -0.2722427784   -1.8334296201
     H    -3.1509277598   -1.8742029300   -3.4290325017
    Cl    -0.7491502250    1.5389020417   -0.2935126195
    Cl    -0.0732140853   -1.3752657915    1.9480803422
