11
-1.2201835517141812e+03 frame 26   xyz file generated by TeraChem
    Cr    -0.3263810110   -0.0598764911   -0.1452088898
     N     1.5672301018    0.1851445477    0.1130302396
     C     2.7216250934    0.4118391906    0.3600042757
     S     4.2988523689    0.7109952243    0.6841914425
     N    -0.7383991686   -1.4961366001   -1.3524025158
     C    -1.2007701212   -2.3712711769   -2.0377093254
     S    -1.8089666590   -3.5611099236   -2.9724074619
     O    -0.6643316872    1.5470366709   -0.8921655216
     H     0.2013018662    1.9495056822   -1.1336937243
     O    -0.6696595439   -0.3352683777    1.6015300331
     H     0.1874347302   -0.4189080656    2.0804671363
