28
-5.4276196507468433e+02 frame 54   xyz file generated by TeraChem
    Fe    -0.0054377527    0.0080858551    0.0293477184
     C     3.0760153424    0.4668876587    0.3636304382
     N     1.9203715578    0.2980771569    0.2481406164
     C     4.4901820562    0.6739002134    0.5049614138
     H     4.7283692489    0.9314537624    1.5493081916
     H     4.8145502447    1.4963876279   -0.1523758855
     H     5.0316165404   -0.2445852462    0.2273966468
     C    -1.6640449480   -1.8670868936   -1.7749401638
     N    -0.2787219456   -1.6377020602   -1.2092758669
     H     0.3894251216   -1.5600966129   -1.9906442284
     H     0.0190050053   -2.4850304696   -0.7037576741
     H    -1.9463630513   -1.0282367266   -2.4135899289
     H    -2.3792504686   -2.0031153712   -0.9612828275
     H    -1.6490176036   -2.7795522911   -2.3843388100
     C    -2.2268795773    2.1084341893   -0.4655522529
     N    -0.8027446534    1.7323208014   -0.8162195230
     H    -0.1821943230    2.5141478290   -0.5601525534
     H    -0.7201301254    1.6630184029   -1.8409381563
     H    -2.2932922990    2.3353558445    0.5998035031
     H    -2.9025435750    1.2965197208   -0.7423000065
     H    -2.5040845071    3.0055596418   -1.0330070760
     C    -2.0752148035   -0.8800511041    2.1694684696
     N    -0.6663592361   -0.3688869346    1.9735661844
     H    -0.0062588215   -1.0354951969    2.3992403168
     H    -0.5460433012    0.4989768896    2.5159329096
     H    -2.1819086396   -1.8533938084    1.6877708542
     H    -2.7905829729   -0.1592499604    1.7697668116
     H    -2.2608728097   -0.9995464667    3.2445505396
