31
-8.4853932256108510e+02 frame 45   xyz file generated by TeraChem
    Fe    -0.3909788756    0.1108222584   -0.4806356451
     C     2.1576170325   -0.9817826403    0.2304208240
     O     1.4955585003   -0.0458208693   -0.2240878940
     H     1.6809633510   -1.8897851620    0.6197767679
     H     3.2499488811   -0.8953208030    0.2436675603
     C    -0.6334433063   -2.1615670272   -2.4362735112
     O    -0.5494977792   -1.7450085521   -1.2802521740
     H    -0.7263694499   -3.2403071098   -2.6139285342
     H    -0.6195828638   -1.4884963833   -3.3065854128
     C    -0.8165146473    4.7970444165   -0.0490152226
     C     0.4477055881    4.2493304843   -0.2746972367
     C     0.5885553560    2.8681357651   -0.3174523866
     N    -0.4645784128    2.0333036630   -0.1427343909
     C    -1.6912493059    2.5681498933    0.0829489036
     C    -1.9044153953    3.9385447202    0.1303471001
     H    -0.9528308768    5.8735281947   -0.0121448549
     H     1.3185772007    4.8797882515   -0.4188142297
     H     1.5508178444    2.4025391771   -0.4949782240
     H    -2.5132522955    1.8729065346    0.2373048978
     H    -2.9034519803    4.3207324623    0.3102731493
     C    -1.9809122049   -1.2459149445    3.7528525678
     C    -1.0449384922   -0.2149097278    3.6402092146
     C    -0.5907464914    0.1513432012    2.3807887465
     N    -1.0184278725   -0.4696762827    1.2540185528
     C    -1.9202854499   -1.4753953605    1.3639136025
     C    -2.4256841657   -1.8812085762    2.5925472587
     H    -2.3556007135   -1.5478509706    4.7261007372
     H    -0.6715849966    0.3074919099    4.5145890316
     H     0.1205557165    0.9576831186    2.2487474916
     H    -2.2287603199   -1.9601570115    0.4453448126
     H    -3.1510647005   -2.6868862764    2.6302014910
