25
-6.1676954311312284e+02 frame 127   xyz file generated by TeraChem
    Cr    -0.0011739428    0.0001724600   -0.0022893282
     C     1.8609419849    0.3760937333   -0.9366569343
     N     2.8814509312    0.5810156191   -1.4474232744
     C     4.1422515474    0.8337290520   -2.0773457250
     H     4.4150296215   -0.0334002172   -2.6837230327
     H     4.8933975703    1.0012880403   -1.3009888470
     H     4.0495126125    1.7211318377   -2.7084327046
     C     0.2793036030   -2.0612989017   -0.3129761837
     N     0.4352561785   -3.1975544820   -0.4841484725
     C     0.6287253191   -4.6006252050   -0.6948326932
     H    -0.3429987812   -5.0997460032   -0.6662268088
     H     1.2743713570   -4.9887749495    0.0971439507
     H     1.0984779365   -4.7494950083   -1.6702839491
     C    -0.2817566767    2.0616386978    0.3081880303
     N    -0.4377317488    3.1978875307    0.4793396034
     C    -0.6313787820    4.6009356135    0.6900199361
     H    -1.0985495382    4.7498652634    1.6667041610
     H    -1.2794720639    4.9884134494   -0.1002826247
     H     0.3399903218    5.1005692626    0.6584868577
     C    -1.8619356132   -0.3759084438    0.9346044399
     N    -2.8807565089   -0.5814497709    1.4484709753
     C    -4.1386411240   -0.8349589776    2.0836689539
     H    -4.2577818832   -1.9132058436    2.2148296766
     H    -4.9373881697   -0.4424445058    1.4489909772
     H    -4.1498480407   -0.3340871672    3.0550988298
