15
-1.3310945208449452e+03 frame 49   xyz file generated by TeraChem
    Co    -0.1442029165   -0.2896849501   -0.3885237075
     C     2.9309370896    0.3560103028    0.2729393260
     N     1.8920592134    0.0184611549   -0.1056303401
     C     4.2335848240    0.7892963917    0.7605793970
     H     4.2497955849    0.7454167503    1.8539874591
     H     4.4247078114    1.8188459144    0.4426508937
     H     5.0204205240    0.1400212377    0.3649762871
     C    -0.5449627551   -2.4941257099   -2.6766973772
     N    -0.2250503778   -1.6918780920   -1.9081696036
     C    -0.9621460910   -3.5029586228   -3.6412079445
     H    -0.0870014361   -3.9624153580   -4.1104226465
     H    -1.5817821850   -3.0399859683   -4.4154044994
     H    -1.5453765036   -4.2779876744   -3.1343933891
    Cl    -1.0787086394    1.6731074140   -0.8698647508
    Cl    -0.9855529572   -1.3149987956    1.4079850419
