16
-1.7511313479947405e+03 frame 92   xyz file generated by TeraChem
    Co    -0.7861938915    1.0214635011    0.2455687489
     S     0.5744250902    2.4021857738    1.6281795719
     C     1.6731405676    1.3575425003    2.3757729234
     N     2.4321523092    0.6404517103    2.9107662913
     S    -2.2096024356   -0.2659533663   -1.1020307633
     C    -1.8687651708   -1.8740593070   -0.6980990465
     N    -1.6500580095   -2.9969263308   -0.4397370810
     S    -1.3183962235    3.0079775655   -0.7949550193
     C    -2.7997219319    2.8471349402   -1.5997997916
     N    -3.8183625637    2.8114820474   -2.1764459117
     C     0.3936764319   -1.4236354436    1.6219503326
     N    -0.1055486048   -0.5216278828    1.1020321142
     C     1.0684475146   -2.5236060383    2.2894771222
     H     1.3403590686   -3.2893367932    1.5569148882
     H     0.4054195927   -2.9713487266    3.0361072883
     H     1.9621247198   -2.1253167032    2.7807444127
