41
-1.2213595465304063e+03 frame 51   xyz file generated by TeraChem
    Cr     0.1527167257   -0.1332763833   -0.1860429370
     C     4.8100835009    0.6836785031   -0.6652649628
     C     3.9244039728    0.7757329315   -1.7660033624
     C     2.5838520025    0.4992063304   -1.5735526454
     N     2.0833556755    0.1343442983   -0.3506951201
     C     2.9369094626    0.0517201705    0.7178451920
     C     4.2901822283    0.3122041575    0.5955785307
     C     6.1967193824    0.9609098680   -0.8272980427
     H     4.2874679846    1.0560735145   -2.7514701018
     H     1.8832684432    0.5550204385   -2.4056726833
     H     2.5037413831   -0.2334909613    1.6715629089
     H     4.9387017248    0.2280793733    1.4639743441
     N     7.3345461099    1.1881541549   -0.9624463243
     C    -1.7588045365   -2.9997941209   -3.4453643549
     C    -0.3892211197   -3.1044713331   -3.1056539762
     C     0.1431165237   -2.2333046769   -2.1722265456
     N    -0.6175133882   -1.2630545402   -1.5716070157
     C    -1.9480809613   -1.1649422099   -1.8888631690
     C    -2.5419193806   -2.0045399631   -2.8133868281
     C    -2.3386474229   -3.8803089215   -4.4011940153
     H     0.2441206302   -3.8567001154   -3.5693806668
     H     1.1918294222   -2.2906340382   -1.8894130634
     H    -2.5227478321   -0.3906587853   -1.3855492448
     H    -3.5977746510   -1.8939622927   -3.0476827145
     N    -2.8145653688   -4.6028959450   -5.1861569182
     C    -1.7973397250    4.1853443501    0.1928243615
     C    -1.6264269182    3.5790832636   -1.0746477179
     C    -1.0911950011    2.3064493066   -1.1455448052
     N    -0.7265898554    1.6056668499   -0.0246517351
     C    -0.8849745037    2.1936818966    1.2035326672
     C    -1.4135383433    3.4641912401    1.3464302682
     C    -2.3421621132    5.4957575579    0.3011413654
     H    -1.9107234738    4.1009848803   -1.9848250104
     H    -0.9474795795    1.8194001772   -2.1076444740
     H    -0.5826253526    1.6153628410    2.0717551078
     H    -1.5309020535    3.8937967613    2.3380533823
     N    -2.7883295930    6.5718441181    0.3879385676
     C    -0.5712656437   -1.8486102383    2.2026599580
     O    -0.0983848824   -0.9119734837    1.5282842864
     H    -1.1076491679   -2.6822310593    1.7304214442
     H    -0.4403023620   -1.8251547147    3.2925577307
