20
-6.2104140816366328e+02 frame 48   xyz file generated by TeraChem
    Fe     0.0152982812    0.1600430161   -0.4232940690
     C     3.0573608300   -0.3944931060    0.1421585355
     N     1.9566719827   -0.1696007950   -0.1603967767
     C     4.4250922979   -0.6733749537    0.5158955091
     H     4.5027153760   -0.7194993569    1.6096170436
     H     5.0810208624    0.1197499622    0.1355260402
     H     4.7340997196   -1.6358284609    0.0885636871
     C    -1.3237479454   -1.8500773620   -2.4263098151
     N    -0.7743002989   -1.0747795647   -1.7548260015
     C    -2.0041925931   -2.8127397685   -3.2614237744
     H    -1.2881970333   -3.5673601548   -3.6110773347
     H    -2.4460988747   -2.3031806296   -4.1270819628
     H    -2.7969116668   -3.3029515591   -2.6819445107
     C    -0.5567085379    3.2061484892   -0.9463172623
     N    -0.2976540207    2.0771613219   -0.8376784338
     C    -0.8769758195    4.6085198195   -1.0839661976
     H    -0.4646998996    4.9925690649   -2.0252117937
     H    -0.4479007755    5.1660982594   -0.2415676127
     H    -1.9671101296    4.7364140327   -1.0825175418
     F    -0.7352851893   -0.0992569784    1.0882938297
