9
-5.3892986330623717e+02 frame 32   xyz file generated by TeraChem
    Cr    -0.0015662611    0.0001240126   -0.0024499101
     C     1.9515685642    0.3980168168   -0.9568402107
     O     2.9463941287    0.5975405873   -1.4372784115
     C     0.3030735669   -2.1652224753   -0.3328658728
     O     0.4607267121   -3.2633992474   -0.5036043892
     C    -0.3028914609    2.1650083590    0.3315906946
     O    -0.4565081391    3.2638313410    0.5017248835
     C    -1.9535242302   -0.3983542108    0.9586047205
     O    -2.9474086131   -0.5975939173    1.4410853991
