13
-4.5021753936186531e+02 frame 75   xyz file generated by TeraChem
    Co    -0.0179680829   -0.0085693688   -0.0352547024
     O     1.9666123180    0.2319968868    0.2056083368
     H     2.5877438911   -0.5140986465    0.3205943402
     H     2.4924585576    1.0516032066    0.2767744401
     O    -0.8713078058   -1.1358485330   -1.4629713710
     H    -1.5108774317   -1.8698550181   -1.3815129346
     H    -0.6866243709   -1.0302585909   -2.4176007745
     O    -0.4456793856    1.9356125900   -0.3285026786
     H    -1.3543141587    2.2927854066   -0.3847034055
     H     0.1614973360    2.6836391933   -0.4879631706
     O    -0.6533229066   -1.0357955128    1.5726993595
     H    -1.1568817967   -1.8709769626    1.6315883689
     H    -0.5117371582   -0.7305843630    2.4909423501
