16
-1.7293301298370257e+03 frame 32   xyz file generated by TeraChem
    Fe     0.0408339180    0.0449492158    0.2588140006
     N     1.8381068825    0.3012266306    0.4965827956
     C     2.9096996591    0.6698641148    0.0742177378
     S     4.3705479284    1.1264566793   -0.3845486002
     N    -0.4219651438   -1.1467435557   -1.0531206991
     C    -0.4881742519   -1.4022008413   -2.2336431665
     S    -0.6290749321   -1.8484645430   -3.7616489498
     N    -0.7821979252    1.6543771271   -0.0222929700
     C    -0.8716218565    2.6498026099   -0.7040592786
     S    -1.0796429571    4.0035757458   -1.5267290109
     C    -1.2580450605   -1.3031125352    2.9654917140
     N    -0.7810607715   -0.8192512901    2.0226075363
     C    -1.8572044451   -1.9103773992    4.1483623882
     H    -2.7497639719   -1.3455467114    4.4480762769
     H    -1.1374367905   -1.9065674343    4.9773850012
     H    -2.1469096077   -2.9469109869    3.9313280821
