15
-5.8843985206189950e+02 frame 36   xyz file generated by TeraChem
    Fe     0.6655483302   -0.8275742063   -0.5464345009
     C     3.4302518462    0.4626331328   -0.0614958496
     N     2.4259111959   -0.0725686258   -0.2971502616
     C     4.6856330494    1.1311096548    0.2331986077
     H     4.7811859289    1.2668063824    1.3197034976
     H     4.7064614531    2.1134549981   -0.2583356220
     H     5.5257515023    0.5230642824   -0.1297686629
     C    -1.2179201469   -2.5801031407   -2.2514298825
     N    -0.4635967159   -1.9346669728   -1.6465619780
     C    -2.1555152865   -3.3893509226   -3.0097264455
     H    -1.6043022990   -4.0773647145   -3.6658255005
     H    -2.7966787208   -2.7390123139   -3.6206317033
     H    -2.7810455154   -3.9720749513   -2.3190918806
     F    -0.0829563253    0.6683803935   -0.8389481271
     F     0.4720413457   -1.5998417063    0.9513588931
