25
-6.2313596988619577e+02 frame 60   xyz file generated by TeraChem
    Mn    -0.0645824934   -0.2479494443    0.1561537776
     C     4.4673964856    0.8762843899   -0.7655993501
     C     3.6095101067    0.6016987800   -1.8330937176
     C     2.3006936816    0.2286575995   -1.5637609382
     N     1.8319052345    0.1272744922   -0.2992598661
     C     2.6603314989    0.3983365828    0.7365942970
     C     3.9836524740    0.7705642440    0.5390717095
     H     5.4957423195    1.1720982607   -0.9489075226
     H     3.9441711961    0.6784194464   -2.8617904358
     H     1.5936972004    0.0106332899   -2.3560286672
     H     2.2387481746    0.3172447969    1.7340924851
     H     4.6147108844    0.9772749124    1.3963860178
     C    -1.0957292881   -3.8219175782   -2.7899288174
     C     0.1171525490   -3.8217947738   -2.0968480025
     C     0.4180909335   -2.7492248451   -1.2695945854
     N    -0.4300710200   -1.7069455800   -1.1165957724
     C    -1.6078777156   -1.7056096413   -1.7827313338
     C    -1.9688899193   -2.7454460487   -2.6296055384
     H    -1.3567206342   -4.6503040529   -3.4412836240
     H     0.8210256107   -4.6417677701   -2.1884125770
     H     1.3416163585   -2.7092461207   -0.7019309083
     H    -2.2563901338   -0.8508303063   -1.6211893488
     H    -2.9214460445   -2.7059558951   -3.1464305463
     I    -1.2324420928    1.9848572586   -0.0649737538
     I    -0.8205875058   -1.2114273264    2.3599067042
