31
-9.8683784764650545e+02 frame 71   xyz file generated by TeraChem
    Co     0.0914588842   -0.1100191119   -0.0876842823
     O    -1.1890196790   -0.5945182767   -1.3949663881
     C    -1.6665250980   -1.7922464668   -1.1374763132
     C    -1.1335960094   -2.4470335060    0.0237767888
     C    -1.5840711736   -3.7292467276    0.3746149344
     C    -2.5527637070   -4.3786759056   -0.3977399713
     C    -3.0767934595   -3.7236130638   -1.5323129683
     C    -2.6458109087   -2.4523009064   -1.9053127287
     O    -0.2256345611   -1.7636587840    0.7012264906
     H    -1.1626067269   -4.2024829506    1.2593310229
     H    -3.8354585184   -4.2285053645   -2.1292179280
     H    -3.0551754020   -1.9498120105   -2.7785099460
     C    -3.0065471257   -5.7775257628   -0.0437898520
     H    -2.8864153077   -5.9775390005    1.0276308239
     H    -2.4300658536   -6.5472554734   -0.5795489382
     H    -4.0623687601   -5.9380937979   -0.2972064162
     O     1.3699824072    0.3761870800    1.2228216313
     C     1.8487609654    1.5721331463    0.9647604524
     C     1.3203697929    2.2264844558   -0.1984444203
     C     1.7735712708    3.5101399424   -0.5474873100
     C     2.7389541577    4.1581990470    0.2273293417
     C     3.2538664845    3.5051436458    1.3694328937
     C     2.8223272166    2.2349564682    1.7396601525
     O     0.4126114290    1.5461044804   -0.8770948436
     H     1.3550000925    3.9840649391   -1.4330141756
     H     4.0057729450    4.0121279861    1.9733129961
     H     3.2207113961    1.7360703908    2.6199771013
     C     3.2350024746    5.5376053287   -0.1464221852
     H     2.7142075242    5.9207718936   -1.0309710179
     H     4.3112969529    5.5401719470   -0.3722021262
     H     3.0828037212    6.2620858207    0.6663031671
