48
-2.3102910956851565e+03 frame 181   xyz file generated by TeraChem
    Fe    -0.0578849589   -0.1027297147    0.0309556373
     C     3.4583825254   -2.8317725081    1.8053230113
     C     3.5891028737   -1.4406815669    1.7862314110
     C     2.5562007831   -0.6734410299    1.2630178430
     N     1.4318491050   -1.2275468729    0.7466881355
     C     1.3153880307   -2.5776494139    0.7554998323
     C     2.2968009828   -3.4064657745    1.2849404741
     H     4.2471618396   -3.4550885624    2.2158053134
     H     4.4765091367   -0.9524528559    2.1752490727
     H     2.6195296460    0.4102865345    1.2533442681
     H     0.4134408560   -2.9902041734    0.3146564199
     H     2.1517229614   -4.4816557223    1.2798666351
     C     0.4224184296   -2.2741377575   -4.2700446867
     C     1.5077170282   -1.6214511959   -3.6490532968
     C     1.3194759856   -1.0241963443   -2.4125610410
     N     0.1266469127   -1.0141470357   -1.7673608034
     C    -0.9209087562   -1.6321638310   -2.3706350495
     C    -0.8179082743   -2.2711170874   -3.5931097776
     S     0.5077167485   -3.0887444495   -5.8142258581
     H     2.4901351001   -1.5832608996   -4.1083999471
     H     2.1514990315   -0.5435181779   -1.9092355872
     H    -1.8705505197   -1.6107502242   -1.8471708165
     H    -1.6903398505   -2.7617796222   -4.0132663455
     H     1.8161541920   -2.8597211127   -6.0626838365
     C    -3.9185238137    2.3968266758   -1.5261315662
     C    -2.6672097725    2.5139143725   -2.1680499826
     C    -1.5954752638    1.7720969808   -1.6986457487
     N    -1.6772932241    0.9418873109   -0.6298045601
     C    -2.8778762241    0.8350159586   -0.0079288748
     C    -4.0065948758    1.5214785511   -0.4209893892
     S    -5.3624464977    3.2601395065   -2.0015727552
     H    -2.5230193093    3.1663943921   -3.0231149249
     H    -0.6326675801    1.8354705790   -2.1960437782
     H    -2.9267304639    0.1750614675    0.8520073925
     H    -4.9409285648    1.3818010901    0.1139017527
     H    -4.8286835412    3.9357349723   -3.0429087274
     C    -0.2894933800    2.3232689047    4.2178155901
     C    -0.4449865455    0.9213970379    4.1703693769
     C    -0.3682342668    0.2740534329    2.9473560547
     N    -0.1677941397    0.9260727155    1.7753830043
     C    -0.0294880629    2.2742014146    1.8199270967
     C    -0.0716893933    3.0000286701    2.9973440363
     S    -0.3459316037    3.2761884728    5.6822839904
     H    -0.6142516568    0.3348364556    5.0676104263
     H    -0.4601837690   -0.8066503275    2.9031393701
     H     0.1205308496    2.7780102100    0.8714018887
     H     0.0617076427    4.0768768607    2.9650951135
     H    -0.5569458685    2.2588709529    6.5464917969
