38
-2.5031331875621509e+03 frame 87   xyz file generated by TeraChem
    Mn    -0.0645161746    0.2436176053   -0.4676260305
     C     4.7167149619   -0.6807690869    0.4416800028
     C     4.3818216179    0.2162072608   -0.5940331500
     C     3.0474777420    0.4545366539   -0.8700275720
     N     2.0311818129   -0.1298791507   -0.1912890530
     C     2.3546316991   -0.9943060622    0.8047635361
     C     3.6606094791   -1.2934986378    1.1475981376
     S     6.3543383603   -1.0765477004    0.9100775782
     H     5.1447636143    0.7266215215   -1.1722255638
     H     2.7739616460    1.1483670468   -1.6593395241
     H     1.5258860969   -1.4309186970    1.3537902508
     H     3.8534222676   -1.9844685690    1.9619012153
     H     6.9842207336   -0.3025793462    0.0007099606
     C    -2.2659998534   -3.2885655753   -3.0754218841
     C    -0.9004737046   -3.0025675797   -3.2895118188
     C    -0.3131198833   -1.9693108645   -2.5832467148
     N    -0.9930159860   -1.1971187036   -1.7003514457
     C    -2.3002524929   -1.4874569520   -1.4738710213
     C    -2.9667549013   -2.4994894968   -2.1380012476
     S    -3.1394384097   -4.5656111757   -3.8837429911
     H    -0.3046231859   -3.5699184980   -3.9966243832
     H     0.7374548303   -1.7369174388   -2.7287215203
     H    -2.8085186413   -0.8862311722   -0.7278325220
     H    -4.0171650581   -2.6732866071   -1.9279906843
     H    -2.1157857722   -5.0274535993   -4.6335198238
     C    -0.8031312921    5.0782449241   -1.2657765627
     C    -0.2395072201    4.2781736926   -2.2816818784
     C    -0.0551650293    2.9279023593   -2.0442578499
     N    -0.3981494755    2.3221641651   -0.8817895762
     C    -0.9334137576    3.0933748153    0.0983242296
     C    -1.1500430936    4.4520233758   -0.0513215279
     S    -1.0962864748    6.7958591233   -1.4171830404
     H     0.0426958272    4.6936703904   -3.2432513775
     H     0.3644267518    2.2951789060   -2.8219218120
     H    -1.1977061139    2.5871998773    1.0211886993
     H    -1.5904961146    5.0134919749    0.7663199431
     H    -0.6524254013    6.9339805848   -2.6847800469
    Cl    -1.0935851777   -0.0955463732    1.5405634980
