13
-1.9588964600444260e+03 frame 44   xyz file generated by TeraChem
    Cr    -0.0424266109    0.1271328706   -0.0862745118
     N     1.7722889777   -0.0919633657    0.2054874892
     C     2.9744600424   -0.1241506164    0.1645623368
     S     4.5628438343   -0.1915402641    0.1605994855
     N    -0.6354354665   -1.1058485426   -1.3193243948
     C    -0.8874930712   -1.7370701477   -2.3145132183
     S    -1.2440643059   -2.6036201307   -3.5950378019
     N    -0.8498336265    1.7633037589   -0.3232076786
     C    -1.2094773353    2.8538995219   -0.6895881854
     S    -1.7128940552    4.2905540284   -1.1341601612
     S    -0.5116957784   -0.3255295161    2.4427106751
     H     0.1008719981   -1.5244726197    2.5338574425
     H    -1.7526755389   -0.8577059723    2.4220850883
