14
-5.8827695804795053e+02 frame 49   xyz file generated by TeraChem
    Co    -0.0034115682    0.2311573758   -0.7976150204
     C     2.7655251484    0.7453006459   -1.7265857078
     O     1.5500901723    0.7576908205   -1.8706664995
     H     3.2368684337    0.3352916748   -0.8221366507
     H     3.4063529021    1.1514458115   -2.5188618317
     C    -0.8769636609   -2.3516795635   -1.4796430809
     O    -0.0763597500   -1.4581884300   -1.7559586497
     H    -1.5850073020   -2.2329016408   -0.6522055141
     H    -0.8661782867   -3.2681485232   -2.0808990582
     C    -0.7124486079    2.3485701952    0.9283302515
     O     0.0684449021    1.9774942573    0.0519515997
     H    -1.4954468714    1.6807850140    1.3036887039
     H    -0.6045425222    3.3635434417    1.3281546809
     F    -1.2069119526   -0.2953203976    0.3513746820
