25
-8.1980544942395420e+02 frame 77   xyz file generated by TeraChem
    Fe     1.0233342018   -1.0138361915   -1.0585022778
     C     4.9505140671    0.9428071123    0.8703569102
     C     4.6451730728    1.1456677054   -0.4752548257
     C     3.4944749199    0.5683117949   -1.0016978986
     N     2.6628094151   -0.1836762158   -0.2528911637
     C     2.9577940012   -0.3851695973    1.0473562851
     C     4.0895726445    0.1626497715    1.6420426096
     H     5.8422192758    1.3829455039    1.3084980844
     H     5.2858109802    1.7434015132   -1.1158561703
     H     3.1873629216    0.6792020748   -2.0348659206
     H     2.2425378750   -1.0057932961    1.5750006651
     H     4.2864515405   -0.0243952641    2.6929361564
     C    -2.9043591316   -2.9694860703   -2.9874084122
     C    -2.0433860727   -2.1891679293   -3.7589042416
     C    -0.9114211592   -1.6417148104   -3.1642430542
     N    -0.6162410360   -1.8437052047   -1.8641138203
     C    -1.4479059662   -2.5958476985   -1.1154691286
     C    -2.5987720132   -3.1728569432   -1.6419341290
     H    -3.7961917301   -3.4093433298   -3.4255735259
     H    -2.2404157074   -2.0017217997   -4.8096965514
     H    -0.1961375937   -1.0210312424   -3.6917786188
     H    -1.1406654032   -2.7071418136   -0.0823838226
     H    -3.2394006132   -3.7707007944   -1.0014299647
     F     1.3861742433   -0.1964869368   -2.6373886161
     F     0.6606082746   -1.8312318262    0.5203468954
