40
-1.0001248128291529e+03 frame 35   xyz file generated by TeraChem
    Fe     0.0440981097   -0.0125905745   -0.0505568862
     C     3.1353183256    0.5077079714   -0.5834708888
     N     2.0224402841    0.2584620325   -0.3413928623
     C     4.5188771845    0.8099646466   -0.8813203332
     H     5.0840225807    0.9237004198    0.0530521761
     H     4.5805795170    1.7434247126   -1.4554016963
     H     4.9586061498   -0.0057832851   -1.4699785761
     C    -2.0033867875   -3.4447178293   -2.4288871352
     C    -0.6414616747   -3.4525794956   -2.1107343430
     C    -0.1094099063   -2.3785234889   -1.4100543767
     N    -0.8883992418   -1.3273363278   -1.0372136926
     C    -2.2135563239   -1.3123582565   -1.3335322700
     C    -2.7951366768   -2.3575461000   -2.0360490073
     H    -2.4432729150   -4.2741452836   -2.9762545380
     H     0.0078288359   -4.2722594831   -2.4019504493
     H     0.9463612249   -2.3362297969   -1.1526464764
     H    -2.7874878436   -0.4493579951   -1.0148997523
     H    -3.8544964566   -2.3162122189   -2.2700552287
     C    -1.7391399996    4.1372477978   -1.1611033609
     C    -1.5459073019    3.1568938192   -2.1415004863
     C    -1.0895376108    1.9020073951   -1.7634845562
     N    -0.8293147325    1.6161453035   -0.4586468362
     C    -1.0058466647    2.5622183045    0.5019796284
     C    -1.4617900980    3.8323868744    0.1756596313
     H    -2.0995785700    5.1249219745   -1.4358989447
     H    -1.7467591891    3.3547147696   -3.1899005314
     H    -0.9263985197    1.1157946418   -2.4942144279
     H    -0.7778467510    2.2864896947    1.5252424939
     H    -1.5962751840    4.5654691415    0.9650093262
     C    -0.9972052993   -1.2217947326    4.3166171646
     C    -2.0460131473   -0.8831579321    3.4513437783
     C    -1.7567968034   -0.5021507863    2.1498255154
     N    -0.4724032731   -0.4437376412    1.7111068577
     C     0.5563180432   -0.7689821747    2.5417499253
     C     0.3200709063   -1.1622143155    3.8521513182
     H    -1.2059299169   -1.5276837329    5.3383410752
     H    -3.0811485651   -0.9163903407    3.7770053265
     H    -2.5389035245   -0.2316632985    1.4503140254
     H     1.5639698705   -0.7022087449    2.1433096834
     H     1.1617345038   -1.4111190458    4.4909161374
