13
-8.5831206772219048e+02 frame 76   xyz file generated by TeraChem
    Mn     0.1888170171   -0.2045546479   -0.2347459843
     C    -2.2325851506   -1.5465919049   -0.4282350582
     O    -1.7251895941   -0.3548563696   -0.5460754818
     C    -1.1562728713   -2.6187197335   -0.0300568898
     O    -1.4558799989   -3.7973581915    0.1504431976
     O     0.0393406256   -2.1092436104    0.0741205141
     O    -3.4123590182   -1.8537828733   -0.5950023971
     C     2.6046626621    1.1434641181   -0.0162505436
     O     2.1024780742   -0.0527171891    0.0785152751
     C     1.5291921093    2.2136053732   -0.4219918014
     O     1.8274549309    3.3935536677   -0.5964550608
     O     0.3364573441    1.7007378903   -0.5403500375
     O     3.7794312195    1.4552593815    0.1752888015
