15
-1.2403876230105129e+03 frame 42   xyz file generated by TeraChem
    Co     0.6162545856   -0.3475674485   -0.7012438862
     S     2.9644668887   -0.0202835749   -0.3351299014
     C     2.3420240694    0.6339812451    1.0913844984
     N     1.7787768622    1.0588574543    2.0323800492
     S    -0.3169862303   -1.3747537689   -2.6569700183
     C    -1.7196492036   -1.0270234308   -1.7849211128
     N    -2.6085511677   -0.7282428299   -1.0746982262
     N    -0.2323019985    1.5545287259   -0.5784960503
     H    -1.2500421131    1.4676222382   -0.6062749528
     H     0.0434612202    1.9963924031    0.3009441393
     H     0.0561847149    2.1642420618   -1.3432524154
     N    -0.0645830753   -1.4579723628    0.9319991260
     H    -1.0776799365   -1.5728817638    0.8623077037
     H     0.3568386696   -2.3858330281    0.9746565312
     H     0.1597468873   -0.9724222974    1.8025906426
