29
-8.3558079069050427e+02 frame 74   xyz file generated by TeraChem
    Co     0.1780786891   -0.2019815204   -0.2582453589
     O    -1.3559539783   -0.7729030695   -1.1799487210
     C    -1.8901586628   -1.9403957575   -1.1392818120
     C    -3.1142510139   -2.1020417850   -2.0103219827
     C    -1.4224581405   -3.0109456211   -0.3729092191
     C    -0.2910003693   -2.9166109051    0.4578932356
     O     0.4227885941   -1.8710046097    0.6023753525
     C     0.1583410762   -4.1144581576    1.2648306186
     H    -2.8478550722   -1.8955851090   -3.0531459692
     H    -3.8680329153   -1.3615993997   -1.7198914114
     H    -3.5464636386   -3.1031420257   -1.9403545101
     H    -0.4914068360   -4.9812199101    1.1212923948
     H     0.1788831215   -3.8504964763    2.3279684624
     H     1.1823334717   -4.3812313641    0.9800620912
     H    -1.9547326875   -3.9533036351   -0.4183122198
     O     1.7118408701    0.3691136887    0.6638731929
     C     2.2466758142    1.5362791935    0.6225360165
     C     3.4709974757    1.6976515299    1.4932831520
     C     1.7796408925    2.6065432576   -0.1446583149
     C     0.6482699841    2.5121536645   -0.9755317882
     O    -0.0661976485    1.4668559989   -1.1190982027
     C     0.2001267107    3.7092661530   -1.7841975163
     H     3.2060027247    1.4863388301    2.5354560692
     H     3.9007115636    2.7000660641    1.4267793251
     H     4.2264695040    0.9603172063    1.1992469364
     H     0.8469369888    4.5775983377   -1.6369065459
     H    -0.8261070722    3.9731653550   -1.5050209209
     H     0.1861952150    3.4457764127   -2.8476009971
     H     2.3124168306    3.5486521446   -0.0998882470
