13
-8.4079346738835761e+02 frame 19   xyz file generated by TeraChem
    Cr     0.1224960776   -0.1462800353   -0.2235705083
     C    -1.4927225249   -2.2347894729   -0.9824281377
     O    -0.6061199997   -1.3580477882   -1.4519681794
     C    -1.7202861709   -2.0341397311    0.5475523269
     O    -2.4749606241   -2.7146229531    1.2045081043
     O    -0.9833916457   -1.0281818026    1.0131641395
     O    -2.0596931274   -3.0788918404   -1.6370697372
     C     2.5217785902    1.1879772300   -0.0404866298
     O     1.9758167902   -0.0204984754    0.0624107285
     C     1.4536673506    2.2564150203   -0.4165713123
     O     1.7110996817    3.4255551664   -0.5922691244
     O     0.2444346133    1.7092504592   -0.5108729971
     O     3.6919418954    1.4452176063    0.1298520803
