38
-1.1745888574314215e+03 frame 49   xyz file generated by TeraChem
    Mn     0.1045411287   -0.3644893526    0.4333949647
     C     2.8964358964   -2.8055618507   -0.5729618123
     C     3.4792819392   -1.6838174310    0.0371426672
     P     2.5080543942   -0.1114802878    0.0897764288
     C     3.3038793409    0.8394172803    1.4628438922
     C     2.9564240494    0.5062277277    2.7833824679
     C     3.5182868936    1.1995780366    3.8549676019
     C     4.4240819931    2.2375215547    3.6266561765
     C     4.7677228690    2.5791503160    2.3184035172
     C     4.2114774637    1.8851075517    1.2417253180
     C     3.0402909174    0.7796471890   -1.4423426559
     C     2.2052387041    1.7905166238   -1.9434482765
     C     2.5677904067    2.5006994036   -3.0883231832
     C     3.7585062576    2.2047741103   -3.7534703631
     C     4.5892984258    1.1932326311   -3.2679496074
     C     4.2333757635    0.4837516077   -2.1195256109
     C     4.7683073569   -1.7949557892    0.5804568562
     C     5.4663612621   -3.0013884601    0.5033648682
     C     4.8840770886   -4.1094365372   -0.1140908051
     C     3.5995936269   -4.0081114232   -0.6509347421
     H     1.8903039532   -2.7393877975   -0.9776612321
     H     2.2434603392   -0.2929879051    2.9728241100
     H     3.2363106253    0.9323898959    4.8701202122
     H     4.8538538865    2.7822156623    4.4640419991
     H     5.4668452530    3.3907098995    2.1306791213
     H     4.4818825201    2.1621467049    0.2279158763
     H     1.2687905400    2.0177879652   -1.4418017510
     H     1.9073060661    3.2773354264   -3.4648303653
     H     4.0341649452    2.7535058935   -4.6511098777
     H     5.5139828350    0.9499929257   -3.7862944382
     H     4.8812217589   -0.3086215321   -1.7573130258
     H     5.2253160884   -0.9407557891    1.0710115596
     H     6.4629265498   -3.0749415252    0.9325072160
     H     5.4259978851   -5.0507490560   -0.1685999508
     H     3.1327257690   -4.8696058327   -1.1210040180
     I    -0.7173770718   -1.3214966596   -1.9171459915
     I    -0.8993374106    2.1302812464    0.6932309972
     I    -0.0862487404   -2.2836459662    2.3384741510
