10
-1.6586475167520705e+03 frame 33   xyz file generated by TeraChem
    Co     0.0150303982    0.4243293847    0.4646725312
     C     3.1971465120   -0.0994293526   -0.0980682125
     N     2.1059381522    0.1535033329    0.1846747685
     C     4.5690232272   -0.4269441878   -0.4674439492
     H     5.1729849031   -0.5947002786    0.4296557800
     H     5.0089447526    0.3935487910   -1.0429536151
     H     4.5819886920   -1.3346899579   -1.0789069319
    Cl    -0.6670191672   -1.1283078547   -1.0863009097
    Cl    -0.2912782088    2.6568884039   -0.0045393369
    Cl    -0.2936264659   -0.0441302131    2.6966008896
