65
-2.0464853136133775e+03 frame 35   xyz file generated by TeraChem
    Co    -0.0709203917    0.0374908363    0.0132458901
     N    -1.1790692087   -0.9531140063   -1.3133944846
     N    -0.5613659529   -1.4628251340    1.1655442170
     C    -1.3554076434   -0.6606844997   -2.6108903567
     H    -0.9096669622    0.2596038143   -2.9693135348
     C    -2.0555286257   -1.4974727600   -3.4803807259
     H    -2.1492409358   -1.2132153452   -4.5235222674
     C    -2.6109229201   -2.6846437595   -2.9989593948
     C    -2.4259944639   -2.9831130367   -1.6393152634
     H    -2.8329658296   -3.8976077933   -1.2302666043
     C    -1.9525325998   -3.4134663958    1.3400301833
     H    -2.6115338505   -4.1288433896    0.8681430086
     C    -1.6842727055   -3.5169317759    2.7147369968
     C    -0.8346084290   -2.5635202903    3.2805597477
     H    -0.5955652164   -2.5768934750    4.3390898007
     C    -0.2891804918   -1.5623112953    2.4765448119
     H     0.3702867563   -0.8100753764    2.8980210402
     C    -1.6966751272   -2.1193535146   -0.8254698193
     C    -1.4056935086   -2.3702735984    0.5952789224
     C    -2.3113119561   -4.6055108577    3.5533462994
     C    -3.3648968154   -3.6266010274   -3.9065442640
     C    -2.8111391003   -5.0649205314   -3.8559361332
     H    -4.4217452809   -3.6789450256   -3.6050503386
     H    -3.3489928819   -3.2644996025   -4.9402977420
     C    -3.8433992834   -4.6766113871    3.3876660276
     H    -2.0615568893   -4.4698268680    4.6111851407
     H    -1.9149880874   -5.5884708729    3.2576546328
     O    -4.4073689215   -4.1170319011    2.4660793769
     O    -4.5262360344   -5.3993723110    4.2596398693
     H    -3.9746539830   -5.8001818813    4.9564568899
     O    -2.0304043023   -5.4130774822   -2.9903677297
     O    -3.2362875076   -5.9220515902   -4.7693389875
     H    -3.8581081629   -5.5350108732   -5.4128940470
     N     1.8723737357    0.2661604687    0.3773058083
     N     0.1491187518    1.7757208002   -0.8543844264
     C     2.7044619417   -0.6227013480    0.9414689774
     H     2.2583944089   -1.5368084091    1.3150020583
     C     4.0798386532   -0.4101473699    1.0340866088
     H     4.7021960363   -1.1752271583    1.4868157283
     C     4.6305978534    0.7714397029    0.5341830449
     C     3.7546780990    1.7006471528   -0.0502841403
     H     4.1458227624    2.6222032524   -0.4593828079
     C     1.6700245138    3.6005196362   -1.2150754874
     H     2.6702054273    4.0046979457   -1.1405003598
     C     0.6352990270    4.3967021427   -1.7330975568
     C    -0.6425313792    3.8364530759   -1.7952119983
     H    -1.4900284677    4.4017949497   -2.1692677109
     C    -0.8438532230    2.5280659754   -1.3552930430
     H    -1.8304904310    2.0770766530   -1.3888972157
     C     2.3919956235    1.4233830728   -0.1308324499
     C     1.4017036054    2.3096914649   -0.7635315775
     C     0.8924554060    5.8155112370   -2.1818569941
     C     6.1157580929    1.0353558731    0.5951380297
     C     6.7128966869    1.3663561591   -0.7880771255
     H     6.3222213956    1.8967870900    1.2476451164
     H     6.6444969375    0.1782316956    1.0260667757
     C     1.5939315079    6.6617783393   -1.0995552183
     H    -0.0424104968    6.3014211699   -2.4814006775
     H     1.5496169733    5.8218216033   -3.0643469215
     O     2.1316143197    6.1415848138   -0.1399822363
     O     1.6255097682    7.9734374028   -1.2653479988
     H     1.1632215531    8.2801257030   -2.0670103160
     O     6.0010126641    1.6313478667   -1.7380143255
     O     8.0306964080    1.3825505865   -0.9025353833
     H     8.4990273175    1.1566593244   -0.0778465254
