19
-7.7101332622190887e+02 frame 54   xyz file generated by TeraChem
    Ni    -0.5551579652    0.5342698893    0.5740667149
     O     0.9931304921    1.2063192853    1.4121218502
     N     2.0237646891    0.1491793792    3.3543595582
     C     1.5238082130    0.6553976943    2.4170544538
     O    -2.1039187509   -0.1369150034   -0.2630415278
     N    -3.1206543453    0.9068929982   -2.2197089638
     C    -2.6275689273    0.4067885316   -1.2754787906
     C    -0.6381122324    2.6417885625   -1.5832264121
     N    -0.4367377409    1.9341733813   -0.6941116858
     C    -0.9614476331    3.4836608533   -2.7218932833
     H    -0.1397900800    3.4787370966   -3.4441611569
     H    -1.1529746363    4.5096754454   -2.3940888272
     H    -1.8649806658    3.0606121586   -3.1770497034
     C    -0.4679510616   -1.5757845944    2.7287720206
     N    -0.6720691164   -0.8665681682    1.8415296052
     C    -0.1410169378   -2.4208658096    3.8639309322
     H    -0.9472201575   -2.3930097240    4.6029432471
     H     0.7807894510   -2.0169818359    4.2994282297
     H     0.0188374650   -3.4526133369    3.5371910650
