9
-1.9890230477730784e+03 frame 252   xyz file generated by TeraChem
    Cr    -0.1401857869   -0.9687629043   -0.4557459066
     S     2.1207348662   -0.5729418113   -0.0762962146
     C     2.1690736537    0.6034469149    1.1437842702
     N     2.2988726128    1.3994435961    1.9908618281
     S     0.3157970158   -2.5977081160   -2.1314821393
     C     0.5937957419   -1.5302897790   -3.4204380063
     N     0.7824538398   -0.8186682354   -4.3310434850
    Cl    -1.1582205097    0.9936322055   -0.1643379690
    Cl    -0.7874743064   -2.4788978297    1.0326548568
