17
-3.1146314840190587e+02 frame 47   xyz file generated by TeraChem
    Cr    -0.1997060339    0.0836974532   -0.3784994685
     N     1.7776388862    0.0255071141    0.0697597278
     H     2.0893202322    0.7565617201    0.7313620686
     H     2.0997364666   -0.8703251143    0.4739797187
     H     2.3596817919    0.1595852227   -0.7789567080
     N    -0.3621917726   -1.8234061046   -1.2332381615
     H     0.0747607426   -1.8737179181   -2.1716149368
     H     0.0374291766   -2.6284620101   -0.7254190999
     H    -1.3460820597   -2.0960580441   -1.4096863564
     N    -0.4423843396    2.1648550928   -0.3343717935
     H     0.0425536742    2.6450756939   -1.1138846761
     H    -1.4345061222    2.4389946974   -0.4536504459
     H    -0.1406369527    2.6816507174    0.5070580750
     N    -1.0041031073   -0.3503800705    1.4354939366
     H    -0.8765515412    0.3899773608    2.1458530574
     H    -2.0302809549   -0.4866073680    1.3658233567
     H    -0.6449602288   -1.2171828741    1.8699916699
