29
-4.8636402437383668e+02 frame 91   xyz file generated by TeraChem
    Mn    -0.1183666046   -0.0623771311    0.2131685231
     C     2.1162605071   -2.2120283180    0.3935225061
     N     1.8401837292   -0.7186458189    0.4810208355
     H     2.4617384056   -0.2347596081   -0.1831774285
     H     2.1679291414   -0.3888573568    1.3983732407
     H     1.8984486205   -2.5727506814   -0.6131251623
     H     1.5115046511   -2.7470112302    1.1286260161
     H     3.1761968213   -2.3875871288    0.6092949363
     C    -1.0194334440   -1.5270634937   -2.2800266379
     N    -0.0129599865   -0.4824898054   -1.8208769750
     H    -0.1352648477    0.3692338551   -2.3857704431
     H     0.9254659808   -0.8115560211   -2.0812275151
     H    -2.0351354216   -1.1463165248   -2.1579646920
     H    -0.8807276173   -2.4480311281   -1.7082334352
     H    -0.8471280756   -1.7402308780   -3.3417663090
     C    -1.2501895740    2.6671215249   -0.2378651614
     N    -1.7187082084    1.2317799527   -0.0582751300
     H    -2.2856326800    0.9656600681   -0.8735009604
     H    -2.3828902829    1.2048100271    0.7256395652
     H    -0.6181733635    2.7489540825   -1.1256787669
     H    -0.7103140920    2.9979455623    0.6528254938
     H    -2.1267381017    3.3123399906   -0.3737024976
     C     0.1031284387    0.7642476774    3.2238681123
     N    -0.4378260041   -0.2856642415    2.2637385153
     H    -1.4512887706   -0.3625041240    2.4254989226
     H    -0.0836670815   -1.2068017752    2.5590127295
     H    -0.3096752070    1.7410236920    2.9671593075
     H     1.1942756054    0.7884459782    3.1858641311
     H    -0.2073013602    0.5008420908    4.2410925075
