93
-3.4690622649702000e+03 frame 74   xyz file generated by TeraChem
    Mn     0.1782332982   -0.4474202630    0.0499590699
     C     3.1050867246   -2.6747003004    0.9158476963
     C     3.5707373351   -1.7105196881    0.0038002832
     P     2.6541724243   -0.1268077175   -0.1349168867
     C     3.2787941946    0.9317975378    1.2326041850
     C     2.5588069753    2.0884606074    1.5848878407
     C     3.0170851656    2.9246532681    2.6035024557
     C     4.1932254969    2.6097141672    3.2883832110
     C     4.9109328166    1.4613132867    2.9478994004
     C     4.4603079563    0.6239292110    1.9254424739
     C     3.2081317752    0.6646720542   -1.6978184364
     C     3.7486125508    1.9593989613   -1.7128175342
     C     4.1537856565    2.5367189528   -2.9184685403
     C     4.0306761226    1.8291982059   -4.1147131560
     C     3.4946869084    0.5381369304   -4.1071672489
     C     3.0770563197   -0.0412337784   -2.9086490452
     C     4.7357937781   -1.9701058013   -0.7345522957
     C     5.4194830850   -3.1750099600   -0.5613465000
     C     4.9508664687   -4.1280026635    0.3451629331
     C     3.7932510267   -3.8759094891    1.0861242498
     H     2.2132560652   -2.4796331983    1.5060468716
     H     1.6491042875    2.3471746563    1.0501890017
     H     2.4595392368    3.8210823421    2.8592571758
     H     4.5504093859    3.2591858645    4.0818950969
     H     5.8278404080    1.2165826750    3.4756591842
     H     5.0316737473   -0.2616980165    1.6683615910
     H     3.8717134928    2.5140353096   -0.7887599229
     H     4.5803200094    3.5354348409   -2.9166488851
     H     4.3599218775    2.2760636097   -5.0480599550
     H     3.4098430248   -0.0231225933   -5.0332719880
     H     2.6760413728   -1.0513716454   -2.9172035997
     H     5.1124696619   -1.2373707945   -1.4401799548
     H     6.3225223131   -3.3649809181   -1.1336081128
     H     5.4886682446   -5.0618822580    0.4784935213
     H     3.4301323205   -4.6118286454    1.7975825995
     C    -0.4813949404    0.4664104628   -4.0604471554
     C    -1.4438548049   -0.3087408974   -3.3888404332
     P    -0.8790426638   -1.4106094496   -2.0330032999
     C    -2.3992563577   -2.1167181502   -1.2675962328
     C    -3.2655158034   -1.2564349041   -0.5640283419
     C    -4.4026001597   -1.7600508060    0.0677376739
     C    -4.6827724378   -3.1282831077    0.0171469744
     C    -3.8255720888   -3.9888611730   -0.6721254379
     C    -2.6887394467   -3.4900966884   -1.3134464567
     C    -0.0141803712   -2.8043636905   -2.8421895167
     C     0.9415615208   -3.5306937756   -2.1129630035
     C     1.5917770211   -4.6203386461   -2.6926612090
     C     1.2945046515   -4.9905755910   -4.0060713084
     C     0.3458111085   -4.2718873768   -4.7381207363
     C    -0.3080268866   -3.1822448989   -4.1628076611
     C    -2.7853127634   -0.2420640978   -3.7939558044
     C    -3.1554120673    0.5891994901   -4.8542557386
     C    -2.1959742097    1.3544103349   -5.5181411671
     C    -0.8574211050    1.2895569219   -5.1210144076
     H     0.5659244260    0.4129346800   -3.7737681385
     H    -3.0663924816   -0.1884711326   -0.5308237317
     H    -5.0740050941   -1.0844925951    0.5898961689
     H    -5.5707189225   -3.5201354014    0.5041895164
     H    -4.0473034914   -5.0507357482   -0.7251147664
     H    -2.0397525481   -4.1683270743   -1.8575358561
     H     1.1868401194   -3.2505850487   -1.0913736993
     H     2.3324432310   -5.1710930315   -2.1207593331
     H     1.8019090946   -5.8364763354   -4.4601121761
     H     0.1135607923   -4.5594407731   -5.7591111227
     H    -1.0409122683   -2.6274158743   -4.7401249513
     H    -3.5418046309   -0.8399677744   -3.2967872990
     H    -4.1951189075    0.6286700026   -5.1652126004
     H    -2.4877078508    1.9939034283   -6.3458982153
     H    -0.1042974131    1.8741071785   -5.6415408275
     C    -1.9528882790    3.9287815763    0.1486221313
     C    -1.1994034025    3.5122142734   -0.9644635508
     C    -0.6175619474    2.2569910664   -0.9639241289
     N    -0.7269141580    1.3886166048    0.0694164569
     C    -1.4501524123    1.7898220629    1.1449648648
     C    -2.0675395502    3.0236003901    1.2226225107
     S    -2.7489169859    5.4853638983    0.2809957242
     H    -1.0659483837    4.1521392091   -1.8301493862
     H    -0.0442265962    1.9211288971   -1.8200652648
     H    -1.5296377118    1.0851813982    1.9654657331
     H    -2.6340774633    3.2800843982    2.1120339232
     H    -2.3751185692    5.9620249410   -0.9239178819
     C    -0.5959570018   -2.2576214706    4.5623894848
     C    -1.1809940883   -2.8251757006    3.4157854521
     C    -0.9334671671   -2.2641985562    2.1743783653
     N    -0.1396347480   -1.1799273380    1.9937522695
     C     0.4268441668   -0.6333523327    3.1003416451
     C     0.2267059108   -1.1280924905    4.3742832357
     S    -0.8214977174   -2.8583785264    6.1939194546
     H    -1.8274372602   -3.6939900773    3.4809418668
     H    -1.3894997892   -2.6874594853    1.2844338798
     H     1.0680452510    0.2271443437    2.9366928123
     H     0.7106242307   -0.6427654216    5.2157240461
     H    -1.6325867608   -3.8891902494    5.8795817617
