25
-6.1682611341155257e+02 frame 99   xyz file generated by TeraChem
    Cr     0.0008551309    0.0009680280    0.0031520091
     C     1.8726718187    0.3666067373   -0.9537212726
     N     2.8884445632    0.5638476078   -1.4758828489
     C     4.1425748066    0.8068165789   -2.1238297967
     H     4.2964025203    0.0445727990   -2.8916909646
     H     4.9390193603    0.7553664899   -1.3769817916
     H     4.1167616143    1.7996286829   -2.5799351357
     C     0.1228971489   -2.0525438710   -0.5639461152
     N     0.1884954891   -3.1671795560   -0.8746871265
     C     0.2712461642   -4.5442570518   -1.2590392742
     H    -0.7261606216   -4.9869889746   -1.2022556051
     H     0.9512442536   -5.0592548789   -0.5757166337
     H     0.6502530277   -4.6019068342   -2.2824283670
     C    -0.1208283473    2.0539750267    0.5700604867
     N    -0.1860205764    3.1684621868    0.8814049466
     C    -0.2663328252    4.5453667950    1.2659601310
     H    -0.6763444251    4.6055204038    2.2771487866
     H    -0.9193294948    5.0686077462    0.5628715779
     H     0.7370538554    4.9775369113    1.2412219091
     C    -1.8725195567   -0.3654684775    0.9565479582
     N    -2.8905478435   -0.5637444255    1.4738676829
     C    -4.1480088081   -0.8087895740    2.1139725030
     H    -4.2652224741   -1.8852467788    2.2613314053
     H    -4.9479346958   -0.4273892650    1.4740925576
     H    -4.1596214335   -0.2946312302    3.0783367640
