10
-9.1475017432593427e+02 frame 96   xyz file generated by TeraChem
    Co     0.1425308657    0.2904064899    0.0443129406
     S     2.6034614125    0.6536890350   -0.4199785008
     C     3.4538779096   -0.8049906307   -0.3870682674
     N     4.1079589892   -1.7820809055   -0.3816953542
     C    -0.9354241845   -0.9477885368   -1.2140668509
     N    -1.5785279784   -1.6034710586   -1.9425878918
     C    -0.1859257324    2.3177265093   -0.1956750251
     N    -0.4171102614    3.4595822437   -0.3250715424
     C    -0.2498857163   -0.5743070760    1.8810906053
     N    -0.4953473887   -1.0163666931    2.9386942202
