16
-8.0417777676378944e+02 frame 33   xyz file generated by TeraChem
    Fe     0.4035161670   -0.9127095134   -0.8029980657
     C     4.6822658608    0.5489099897    0.6183346357
     C     3.6225501123    1.4534445323    0.4561803511
     C     2.3959502623    0.9897459774    0.0090342029
     N     2.1789660138   -0.3077664810   -0.2851595435
     C     3.1909203997   -1.1866358279   -0.1278849210
     C     4.4439247114   -0.8012694168    0.3145798138
     S     6.2907988901    1.0127061795    1.1783879740
     H     3.7373773782    2.5099800583    0.6733117807
     H     1.5589626417    1.6652544994   -0.1279905068
     H     2.9760643415   -2.2193213551   -0.3770404988
     H     5.2229652514   -1.5488057616    0.4194242245
     H     6.0319134666    2.3266929465    1.3358005384
     I     0.7045551181   -2.5330458727   -2.8476506002
     I    -0.7561438262    0.8875881626   -2.3363893423
     I    -0.4985994111   -1.4727177940    1.5553449353
