13
-4.7440804858798089e+02 frame 82   xyz file generated by TeraChem
    Ni     0.0045999192   -0.0148023765   -0.0014820654
     O     1.1538017137   -1.4020395022    0.7132437801
     H     1.9081606728   -1.7676017053    0.2103731483
     H     1.3233968498   -1.5222613583    1.6679010405
     O     0.1008555237   -0.9773318948   -1.6982276055
     H     0.0950071435   -0.5115286315   -2.5576612457
     H    -0.2493254300   -1.8805348050   -1.8329211897
     O    -1.1391829378    1.3278782582   -0.8347441677
     H    -1.1594700267    2.2622758238   -0.5491612994
     H    -2.0128834470    1.1152857648   -1.2189029976
     O     0.0122484016    0.8679784207    1.7495425389
     H    -0.7897932054    1.0965457738    2.2593339143
     H     0.7530197094    1.4065418584    2.0922576876
