22
-1.6238334548333571e+03 frame 60   xyz file generated by TeraChem
    Cr     0.2752116342   -0.0061299784    0.3748974651
     C     4.9103810120    0.0284885284   -0.4543593688
     C     4.0498335970   -0.0595956273   -1.5842408276
     C     2.6839019763   -0.0801694251   -1.3899939902
     N     2.1357851186   -0.0103800247   -0.1329875296
     C     2.9678638914    0.0774307542    0.9634613195
     C     4.3399745048    0.0984341695    0.8452125039
     C     6.3138984896    0.0410880580   -0.6238697747
     H     4.4560513884   -0.1106979109   -2.5910607206
     H     1.9998383864   -0.1472226885   -2.2292990354
     H     2.5042247712    0.1263293499    1.9502347295
     H     4.9665653629    0.1639866097    1.7303260691
     N     7.4788886780    0.0527711346   -0.7656409291
     S    -0.5267817796   -1.6322997336   -1.3391603023
     H    -0.3259338639   -2.8377531324   -0.7505464824
     H    -1.8738524701   -1.6324968392   -1.1810764672
     S    -0.9262681207    2.1686381578   -0.0277890271
     H    -0.2753036486    2.6634267459   -1.1099122879
     H    -0.3335390401    3.0093205670    0.8575231827
     S    -1.4646606059   -0.6759831233    2.1449273331
     H    -1.3471313370    0.2171458026    3.1579435731
     H    -0.8704696327   -1.6987466759    2.8082892584
