15
-6.8860740329640430e+02 frame 31   xyz file generated by TeraChem
    Fe    -0.4726420943    0.8458262622    0.8993962516
     O     1.3711192009    0.6375051846    0.5660181983
     N     2.2985135492   -1.5736614734    1.0327497714
     C     1.8790032012   -0.5005816850    0.7952912166
     O    -1.6426944912   -0.2470156239   -0.1060897849
     N    -1.7897993709    0.1812918679   -2.5060294044
     C    -1.7368619127   -0.0480733064   -1.3534170262
     C    -0.1457765605    2.2702203456   -1.5222188482
     O    -0.5620791731    2.3338756468   -0.3646907787
     H    -0.3738018199    3.0867526392   -2.2165877985
     H     0.4789279997    1.4419701428   -1.8670255066
     C    -0.3098395031   -1.6562334287    2.1621127268
     O    -0.4641019337   -0.4497712514    2.3606276565
     H    -0.1562046775   -2.3213712946    3.0191699662
     H    -0.3616897065   -2.0852633158    1.1578220009
