49
-2.7301480744272226e+03 frame 43   xyz file generated by TeraChem
    Co    -0.0104818122   -0.0081353808    0.0131362699
     C     4.7501780788   -0.7581586437    0.7718202078
     C     4.2740269021    0.4745008730    0.2773175507
     C     2.9149437325    0.6437882755    0.0773830942
     N     1.9999941141   -0.3243408821    0.3334120436
     C     2.4573962741   -1.5096525711    0.8142633759
     C     3.7959837792   -1.7659303171    1.0425262955
     S     6.4309273309   -1.1233620367    1.0732854941
     H     4.9480671626    1.2939257159    0.0503336841
     H     2.5314860507    1.5880276756   -0.2956270616
     H     1.7120497054   -2.2716007702    1.0229860714
     H     4.0968261972   -2.7347419974    1.4288275970
     H     6.9380785981    0.0710308980    0.6985955118
     C    -1.6169353195   -2.3996012554   -3.9255603336
     C    -0.3576003673   -2.6920648468   -3.3605920944
     C     0.0664345415   -1.9851750241   -2.2486238797
     N    -0.6725947071   -1.0118325299   -1.6608066921
     C    -1.8813430691   -0.7236551602   -2.2094608817
     C    -2.3840241826   -1.3793357196   -3.3171779287
     S    -2.2895285798   -3.2047931962   -5.3213965613
     H     0.2878496770   -3.4584044326   -3.7771261954
     H     1.0354770388   -2.1974187724   -1.8085368994
     H    -2.4538159672    0.0698228729   -1.7379299358
     H    -3.3582378516   -1.1012659812   -3.7068716451
     H    -1.2598438593   -4.0488766317   -5.5484430177
     C    -0.8704688948    4.7304103490   -0.8027255040
     C    -0.3346484504    3.8996846273   -1.8108792815
     C    -0.1097575888    2.5622813662   -1.5354256432
     N    -0.3761364762    1.9948622988   -0.3310592117
     C    -0.8960490001    2.7930482760    0.6360425519
     C    -1.1525914046    4.1383892932    0.4485834024
     S    -1.2113781484    6.4319727345   -0.9983948272
     H    -0.0980839443    4.2832860517   -2.7979552873
     H     0.2923844833    1.9087282261   -2.3040636118
     H    -1.1116862344    2.3246694489    1.5906538066
     H    -1.5683437963    4.7212306882    1.2644770378
     H    -0.8048174437    6.5436520079   -2.2815675103
     C    -2.3148528120   -1.5243849597    4.0365419898
     C    -2.8164713147   -1.8358239753    2.7550408776
     C    -2.1344006295   -1.3920729985    1.6353718910
     N    -0.9937154761   -0.6615616208    1.7017115232
     C    -0.5067803173   -0.3671037508    2.9350235510
     C    -1.1225844928   -0.7675301769    4.1057426200
     S    -3.0616565623   -2.0107456422    5.5382721229
     H    -3.7247229792   -2.4151976701    2.6255519528
     H    -2.5049429451   -1.6262348645    0.6428368591
     H     0.4149171579    0.2063205577    2.9711608568
     H    -0.6816280677   -0.5000025770    5.0609051616
     H    -4.1044178723   -2.6823953847    5.0036271272
