17
-5.4385751551764815e+02 frame 144   xyz file generated by TeraChem
    Cr    -0.0007538953   -0.0012624224    0.0003892587
     C     2.5356044387   -1.6516344380    0.3736717145
     O     1.6642173672   -0.8666109845    0.7595880815
     H     2.5226059073   -2.0580846330   -0.6455911235
     H     3.3366407118   -1.9448556515    1.0628284952
     C    -0.2314799957   -1.0107050426   -2.8712192690
     O     0.3176320702   -0.9400044016   -1.7678490059
     H     0.2149502390   -1.6381986088   -3.6519888672
     H    -1.1559207671   -0.4589369881   -3.0850742772
     C    -2.5396506331    1.6456887708   -0.3711249811
     O    -1.6651823080    0.8650399091   -0.7588904558
     H    -2.5311960492    2.0456990745    0.6507323067
     H    -3.3389563122    1.9414022657   -1.0612249305
     C     0.2360154592    1.0171996676    2.8682661641
     O    -0.3198326255    0.9366964359    1.7689467161
     H     1.1682370678    0.4768394056    3.0774131056
     H    -0.2124452315    1.6416649882    3.6502998879
