13
-2.1094065859533584e+03 frame 16   xyz file generated by TeraChem
    Co     0.2566839355    0.0854177534   -0.1165233565
     S     2.6500719177   -0.1705020170   -0.3611277644
     C     3.4355296465    0.7385811940    0.8258518541
     N     4.0458299091    1.3493530901    1.6218356656
     S    -0.7909113016   -0.9021607902   -2.0231369187
     C    -0.4015470692   -2.5471561261   -2.0199238211
     N    -0.1653060813   -3.6946779008   -2.0918641142
     S    -0.0618843679    2.4252988461   -0.4953922237
     C    -1.6666598750    2.7164081004   -0.9390515468
     N    -2.7597900354    2.9992324739   -1.2598125660
     S    -0.0315415261   -0.9927909842    1.9600166032
     C    -1.6898794863   -0.9875257405    2.2947663723
     N    -2.8209828504   -1.0195911089    2.6043145245
