41
-1.3676763341385026e+03 frame 23   xyz file generated by TeraChem
    Mn     0.2064991815   -0.1037462187    0.2281176977
     C     2.5831150617   -2.8145149205    0.4324754396
     C     3.2965177377   -1.5995279738    0.4350886419
     P     2.3445076201   -0.0461424248   -0.0097102213
     C     3.1754040987    1.2124475669    1.1169118950
     C     2.5942437829    1.3818686126    2.3924967864
     C     3.1269876790    2.3140146267    3.2901971613
     C     4.2279576803    3.1038511912    2.9280899471
     C     4.7969966079    2.9556753236    1.6579906288
     C     4.2749517280    2.0147124584    0.7585565725
     C     3.0532659428    0.4204511102   -1.6864556493
     C     2.3152915456    1.3686448168   -2.4308129910
     C     2.7158696956    1.7420324208   -3.7162886505
     C     3.8470808948    1.1547817431   -4.3053057404
     C     4.5712168502    0.1939614033   -3.5904193917
     C     4.1838955388   -0.1654863588   -2.2917978819
     C     4.6554391731   -1.6142553015    0.8069043188
     C     5.2940477592   -2.8157493025    1.1406774367
     C     4.5812225851   -4.0211107017    1.1155636172
     C     3.2245786203   -4.0145131587    0.7644782426
     H     1.5153912467   -2.7875452329    0.1915932338
     H     1.7130982057    0.7859812218    2.6540797619
     H     2.6711271167    2.4336906027    4.2748770194
     H     4.6322326105    3.8379917369    3.6278688018
     H     5.6469758882    3.5751374213    1.3634597177
     H     4.7227566225    1.9104922802   -0.2300689188
     H     1.4022481402    1.7789264229   -1.9931991474
     H     2.1357733021    2.4842347826   -4.2678724217
     H     4.1514553314    1.4353465719   -5.3152035675
     H     5.4467711600   -0.2776042866   -4.0420460184
     H     4.7638343361   -0.9101854002   -1.7480534288
     H     5.2153538934   -0.6795955945    0.8509252867
     H     6.3474745401   -2.8090563428    1.4283304803
     H     5.0773371046   -4.9568663114    1.3804080739
     H     2.6586519033   -4.9479921957    0.7582829055
     O    -0.3354261179   -1.7912617480   -0.4705230141
     H     0.2054957826   -2.0750109041   -1.2289803613
     O    -0.1827958887    1.7039105149   -0.0960747070
     H     0.5730259518    2.3184800857   -0.0608568537
     O    -0.0687769543   -0.4254258440    2.0471756827
     H    -0.1383332298   -1.3988929349    2.0992790694
