19
-9.6032232258215038e+02 frame 105   xyz file generated by TeraChem
    Cr    -0.0924334502    0.3452048892   -0.1571064677
     C     4.7641349635   -0.2746232852    0.1727658764
     C     4.1224036960   -0.2519021631   -1.0737703688
     C     2.7451994372   -0.0933557730   -1.1175620795
     N     1.9815289449    0.0369039647   -0.0145630918
     C     2.5961459985    0.0018520607    1.1874221069
     C     3.9692369728   -0.1460417105    1.3210747351
     S     6.5152293957   -0.4571419517    0.3720769380
     H     4.6771844961   -0.3516797129   -2.0011524606
     H     2.2074950295   -0.0721412829   -2.0600812192
     H     1.9401910234    0.0853797326    2.0473966360
     H     4.4101679948   -0.1659190643    2.3127983480
     H     6.8174498494   -0.5512326995   -0.9389124154
     O    -0.3966270963   -0.8455243517   -1.4680877415
     H     0.1394002275   -1.6550577622   -1.4615617492
     O    -0.4385642111    2.0788691592   -0.5133477056
     H     0.3157972138    2.6885712456   -0.4980344093
     O    -0.2632600774    0.0131630564    1.6164624783
     H    -1.1811758032    0.0384636553    1.9374012032
