13
-7.9582447573764762e+02 frame 62   xyz file generated by TeraChem
    Fe    -0.2440451276    0.3595653408    0.1869029836
     O     1.5981739717    0.6839039382   -0.1094103033
     N     3.6171367138   -0.6448874819    0.1912869645
     C     2.6086494489   -0.0460842063    0.0663512330
     O    -1.3516823559   -0.6500479067   -0.9874642794
     N    -1.7648575279   -3.0304270858   -1.2921170629
     C    -1.5260225273   -1.8908937441   -1.1020788029
     O    -0.7542856009    2.1017016799   -0.5700580404
     N    -0.7124731907    3.1676033438   -2.7566334497
     C    -0.7150058873    2.6148402460   -1.7117780235
     O    -0.0551671204   -1.1071783981    1.5001679530
     N    -0.4453767441   -0.6883839415    3.8692624933
     C    -0.2553563230   -0.8698266749    2.7155546416
