27
-2.3173895234107995e+03 frame 68   xyz file generated by TeraChem
    Mn    -0.0589390178    0.0463136907   -0.1664777136
     C     4.7584471468   -0.3925768380    0.5841692527
     C     4.2436216296    0.5691517280   -0.2959536312
     C     2.8706331892    0.6544023822   -0.4770137975
     N     1.9967995485   -0.1543385795    0.1566525096
     C     2.4908761681   -1.0727438430    1.0138078379
     C     3.8479683837   -1.2255316991    1.2515097609
     S     6.4871587932   -0.6074217973    0.9002946795
     H     4.8925993031    1.2520331851   -0.8346756243
     H     2.4315481199    1.3980854722   -1.1350912524
     H     1.7533992155   -1.6794106238    1.5295048160
     H     4.1861757599   -1.9791942756    1.9552360351
     H     6.9210243018    0.3846423348    0.0964491497
     C    -1.3576326381   -3.0024904892   -3.7688645352
     C    -0.9750100589   -1.6845887932   -4.0529156034
     C    -0.6134808991   -0.8455406176   -3.0085904031
     N    -0.6061703035   -1.2412661266   -1.7200277211
     C    -0.9855301675   -2.5071655554   -1.4437191283
     C    -1.3617834561   -3.4098896845   -2.4265034811
     S    -1.8396384658   -4.1733966353   -5.0064083858
     H    -0.9614927362   -1.3029214453   -5.0687094932
     H    -0.3338956959    0.1890508189   -3.1789099025
     H    -1.0012411205   -2.7791953652   -0.3926405124
     H    -1.6610426504   -4.4140985241   -2.1440762183
     H    -1.7014282043   -3.3520849075   -6.0671316295
    Cl    -0.2863181363    2.0878733157   -1.2278858865
    Cl    -0.9631837570   -0.9725712266    1.6986323568
