16
-7.8478039104754350e+02 frame 24   xyz file generated by TeraChem
    Mn     0.1265863302    0.4581180673   -0.2119515342
     C     4.8491424281   -0.3788673363    0.2038330300
     C     4.3335139034    0.5045446159   -0.7512183107
     C     2.9632528466    0.7149454119   -0.8078686740
     N     2.0949472391    0.1143342315    0.0318523076
     C     2.5922790249   -0.7334878653    0.9545231457
     C     3.9484602699   -1.0087483558    1.0692506692
     S     6.5846816715   -0.7347414495    0.3687827006
     H     4.9769464471    1.0259435954   -1.4526687293
     H     2.5271358639    1.3909283031   -1.5351400288
     H     1.8648419861   -1.1867675016    1.6190401036
     H     4.2872719616   -1.7040347549    1.8305936550
     H     7.0039447078    0.0505774626   -0.6443212451
     I    -0.1506293505   -1.0814617612   -2.4364950350
     I    -0.0715283773    3.1099318854   -0.8529834533
     I    -0.8415192545   -0.1221453678    2.2827320498
