9
-5.9764894308762223e+02 frame 63   xyz file generated by TeraChem
    Co    -0.2418192652    0.0891909270   -0.3829900546
     C     1.9274776034    0.3581623158   -0.0410105548
     O     3.0265907816    0.4898839740    0.1437517636
     C    -0.4841002723   -1.8067150759   -1.4206515735
     O    -0.6017531577   -2.7893204568   -1.9493152340
     C    -0.6572473109    2.2243687955   -0.2706501145
     O    -0.8707385861    3.3240088172   -0.2067937350
     C    -0.8889538175   -0.7344502256    1.5688570438
     O    -1.2095634815   -1.1551666931    2.5587696202
