17
-5.6076435374437779e+02 frame 38   xyz file generated by TeraChem
    Mn     0.1016133731    0.0641153317    0.2038903527
     C     3.0203698632    0.7855507436   -0.4808506782
     O     1.9266343979    0.3344607167   -0.0884260429
     H     3.9275382970    0.5126145000    0.0790428360
     H     3.0767510016    1.4339752721   -1.3668655723
     C    -0.0970963346   -2.3640405678   -1.5389168954
     O    -0.3361503961   -1.2191127909   -1.1069273027
     H    -0.6641379958   -2.7011440747   -2.4194711246
     H     0.6467247420   -3.0222023484   -1.0680270087
     C    -1.4290751500    2.5461630147   -0.6573956605
     O    -0.7069102765    1.7394290797   -0.0396539145
     H    -1.5394205382    3.5594436053   -0.2416971454
     H    -1.9402538361    2.2580626869   -1.5872236839
     C    -1.5278139488   -0.9888186526    2.6033581738
     O    -0.7061614622   -0.6776042338    1.7199181464
     H    -1.1484680382   -1.4445975670    3.5304192908
     H    -2.6038055881   -0.8162667970    2.4578674386
