25
-1.5405903309107507e+03 frame 54   xyz file generated by TeraChem
    Fe     0.1891535395    0.2411789645    0.1921454392
     C     5.0413809007   -0.5033853007   -0.5533493148
     C     4.3470673138    0.4510385855   -1.2958725344
     C     2.9866040560    0.6265406899   -1.0608651680
     N     2.3134069625   -0.0944896523   -0.1441781861
     C     2.9868402310   -1.0110297228    0.5769736987
     C     4.3472443240   -1.2458784853    0.4013168605
     H     6.1043671619   -0.6619252751   -0.7119582782
     H     4.8464177785    1.0583241600   -2.0437876381
     H     2.4029509163    1.3678622538   -1.5979179515
     H     2.4032752789   -1.5479271391    1.3184696239
     H     4.8468328683   -1.9936126930    1.0086293167
     C    -2.1081804044   -2.8693607148   -2.9109228565
     C    -1.7789644808   -3.2722030447   -1.6171998926
     C    -1.1316587587   -2.3711882574   -0.7769335634
     N    -0.8076926240   -1.1243297705   -1.1684210768
     C    -1.1335068516   -0.7339359880   -2.4152513454
     C    -1.7808484976   -1.5754716416   -3.3149612661
     H    -2.6156345327   -3.5490806635   -3.5896836351
     H    -2.0221411411   -4.2658454970   -1.2552597900
     H    -0.8712615245   -2.6247120651    0.2462382806
     H    -0.8745994232    0.2893482723   -2.6699442299
     H    -2.0255481773   -1.2145149837   -4.3085874657
    Cl    -0.1315640353    2.2578701565   -0.8291585048
    Cl    -0.1311806775   -0.7795603759    2.2095633223
