38
-1.5675850800212870e+03 frame 32   xyz file generated by TeraChem
    Cr    -0.0831666801    0.0998810664   -0.0028415452
     C     4.6785892953    0.2708233165    0.1671968470
     C     4.0077010516    0.7458739004   -0.9771450602
     C     2.6274283467    0.6788061588   -1.0201852019
     N     1.8967260874    0.1654707880    0.0059350435
     C     2.5413430509   -0.2931027975    1.1150121040
     C     3.9211022037   -0.2569911793    1.2277331548
     C     6.1034543996    0.3287000449    0.2467488475
     H     4.5592716327    1.1633395831   -1.8124255590
     H     2.0770136386    1.0484511596   -1.8790615267
     H     1.9241088224   -0.6894199669    1.9144766265
     H     4.4000635162   -0.6302637106    2.1264284335
     N     7.2638377774    0.3769385047    0.3082325787
     C    -1.5877631974   -3.4020446778   -2.8707458859
     C    -0.2103086669   -3.2503738418   -2.6294272469
     C     0.2239944748   -2.1854526196   -1.8594806366
     N    -0.6362052313   -1.2704212934   -1.3379017063
     C    -1.9696856293   -1.4172628498   -1.5702166240
     C    -2.4787102137   -2.4605693401   -2.3229647657
     C    -2.0727056169   -4.4921380134   -3.6560674319
     H     0.5069939075   -3.9570704309   -3.0320327904
     H     1.2775875331   -2.0483357808   -1.6449171544
     H    -2.6314199024   -0.6808064165   -1.1238223066
     H    -3.5484354300   -2.5463058131   -2.4795395697
     N    -2.4661838184   -5.3777362151   -4.2989995951
     C    -1.4396199255    4.3816256185   -1.6002102224
     C    -1.3993590643    3.2832765750   -2.4801105530
     C    -0.9982689971    2.0506152295   -1.9965378617
     N    -0.6362143836    1.8675163782   -0.6983275068
     C    -0.6743711806    2.9267796276    0.1544482918
     C    -1.0682102372    4.1882498080   -0.2575671987
     C    -1.8508023543    5.6681622389   -2.0651021686
     H    -1.6820035274    3.3935792984   -3.5213336265
     H    -0.9653891869    1.1821228887   -2.6462124248
     H    -0.3927625866    2.7371668734    1.1846358899
     H    -1.0916768809    5.0072564400    0.4529913045
     N    -2.1822504029    6.7151240660   -2.4478336165
    Cl    -1.0474074439   -0.2115899845    1.8883374106
