53
-1.4204574327602450e+03 frame 104   xyz file generated by TeraChem
    Fe    -0.0629801025    0.0374351924    0.0490273713
     C     1.9776870255    0.3754555257   -0.1934242290
     N     3.1246333594    0.5579201346   -0.3255874131
     C     4.4776670697    0.7729632496   -0.4798304175
     C     5.0246828872    2.0090243862   -0.0673687624
     C     6.3856288853    2.2123616251   -0.2233333160
     C     7.1909839389    1.2000437801   -0.7812956070
     C     6.6308941006   -0.0271294268   -1.1879899186
     C     5.2722544040   -0.2514521096   -1.0420094753
     H     4.3839105489    2.7724645459    0.3603104578
     H     6.8318906697    3.1518372905    0.0854326594
     H     7.2645635896   -0.7968824269   -1.6158108548
     H     4.8176725610   -1.1877469110   -1.3470425576
     H     8.2571650832    1.3679505925   -0.8997278888
     C    -0.7367992624   -1.3211521616   -1.3758112818
     N    -1.1185513388   -2.0829704246   -2.1759719759
     C    -1.5718444048   -2.9844151142   -3.1153580193
     C    -2.7480901468   -3.7193145539   -2.8435736901
     C    -3.1940162491   -4.6240999201   -3.7922634076
     C    -2.4796217645   -4.7956233844   -4.9944061461
     C    -1.3093633782   -4.0543680973   -5.2517156916
     C    -0.8455994898   -3.1438787213   -4.3171132156
     H    -3.2808084698   -3.5685477346   -1.9109230667
     H    -4.0944635880   -5.2011061302   -3.6096675708
     H    -0.7711053583   -4.1971697478   -6.1828368459
     H     0.0520169115   -2.5607910278   -4.4919589479
     H    -2.8359960424   -5.5076336057   -5.7326438696
     C    -1.0669118158    1.8405922320   -0.2240520236
     N    -1.6149142541    2.8618318275   -0.3749054231
     C    -2.2568720120    4.0682941483   -0.5552827406
     C    -2.3956953382    4.5779427152   -1.8663900660
     C    -3.0365738964    5.7936182985   -2.0361720506
     C    -3.5320222178    6.4923097420   -0.9172828196
     C    -3.3869122329    5.9705706088    0.3836411643
     C    -2.7499079327    4.7563236573    0.5765771510
     H    -2.0050034152    4.0214816862   -2.7114252277
     H    -3.1565909195    6.2085792812   -3.0314206013
     H    -3.7744840216    6.5205875014    1.2347349060
     H    -2.6251397478    4.3341944535    1.5677897839
     H    -4.0327690945    7.4452614941   -1.0594240554
     C    -0.3642004863   -0.7920167522    1.9371173957
     N    -0.5359022376   -1.2667760473    2.9912669484
     C    -0.7303340035   -1.8324542653    4.2331376173
     C    -1.8482050555   -1.4343612351    5.0007363077
     C    -2.0319914080   -2.0131067113    6.2451815122
     C    -1.1156760658   -2.9729242639    6.7199381165
     C    -0.0051079516   -3.3587386080    5.9430599217
     C     0.1971727881   -2.7942224068    4.6952562060
     H    -2.5393032613   -0.6935731594    4.6135337026
     H    -2.8819292705   -1.7273043849    6.8559431137
     H     0.6915497675   -4.0988631893    6.3225479664
     H     1.0435131670   -3.0741380748    4.0774829120
     H    -1.2671375001   -3.4209162107    7.6973648522
