14
-3.0395324254553094e+02 frame 83   xyz file generated by TeraChem
    Fe    -0.2482903335    0.0976336782   -0.2680185964
     N     1.6059540035    0.2844083705   -1.0582508961
     H     2.1186247396    1.1305252244   -0.7909368189
     H     2.2276646084   -0.4908107174   -0.8003477248
     H     1.5836956625    0.2953773174   -2.0856421743
     N    -0.3295173264   -1.8525013505   -0.8562380389
     H    -0.0236000914   -2.5001409786   -0.1192303446
     H    -1.2763916038   -2.1620795557   -1.1010197182
     H     0.2428688233   -2.0844226279   -1.6754386601
     N    -0.2328518990    2.0423084580    0.3269353493
     H     0.3384062353    2.6669610249   -0.2518070989
     H    -1.1608891712    2.4797952540    0.3471724659
     H     0.1291718067    2.1527136097    1.2830779536
     I    -2.7279263970   -0.1975809518    0.9735100914
