9
-2.0477817697074286e+03 frame 35   xyz file generated by TeraChem
    Co     0.0497015599   -0.0839497499    0.0222386083
     N     1.9447289281    0.0933750230   -0.3152571044
     C     3.1107973072    0.2293050614   -0.4812206892
     S     4.7058060939    0.4102401066   -0.7145422075
     N    -0.5806345676   -1.4651221518   -1.1563181326
     C    -0.9940703666   -2.3028167662   -1.8874501854
     S    -1.5537964375   -3.4487555738   -2.8874766548
    Cl    -0.9760012606    1.8829828839   -0.3866351511
    Cl    -0.2927468700   -0.5320556228    2.2018235874
