21
-1.5039551107750972e+03 frame 49   xyz file generated by TeraChem
    Fe    -0.2749218805   -0.1514924681    0.1433602184
     O     1.8187676500    0.1590155231    0.1278296033
     C     2.7424449143   -0.2760084272    1.0681830638
     C     3.9812112168    0.0988867429    0.6756187221
     C     3.8369338913    0.8097728748   -0.5695746706
     C     2.5177147097    0.8268189622   -0.8667745662
     H     2.3169128260   -0.8036524331    1.9068606637
     H     4.9005886544   -0.0979944611    1.2087064666
     H     1.9077194525    1.2513338361   -1.6479870597
     H     4.6251077258    1.2574799818   -1.1582661060
     O    -0.5398519098   -1.5197929064   -1.4876313030
     C    -0.1792097060   -2.8579238842   -1.4663791103
     C    -0.6250773435   -3.4595733160   -2.5925797211
     C    -1.3072003487   -2.4529667134   -3.3653209063
     C    -1.2397832952   -1.2973535540   -2.6657526155
     H     0.3473637477   -3.1802577427   -0.5823403848
     H    -0.4937194041   -4.5009146097   -2.8506067662
     H    -1.5852897257   -0.2846084595   -2.7991657084
     H    -1.7890278733   -2.5849980701   -4.3237743866
    Cl    -1.1457101746    1.6753629714   -0.8380382406
    Cl    -0.5080745010   -1.2236897076    2.0956935544
