53
-1.5078439603873730e+03 frame 63   xyz file generated by TeraChem
    Fe    -0.1836124288    0.1863324923   -0.4786276316
     C     1.7956646939   -0.1305684837   -0.1511955507
     N     2.9123869984   -0.3118691933    0.1345908066
     C     5.3767446893    0.1568285904    0.2544894910
     C     5.2877396600    1.3490817620   -0.4795387529
     C     6.4444124116    2.0673529528   -0.7340990077
     C     7.7274234116    1.5978415571   -0.2505780016
     C     7.8201694269    0.4032856764    0.4883342920
     C     6.6685443282   -0.3103400117    0.7408169945
     H     4.3315950969    1.7088624216   -0.8433551950
     H     6.4074082335    2.9940427007   -1.3000652447
     H     8.7819736378    0.0536807709    0.8504579968
     H     6.7159938779   -1.2364192392    1.3094191060
     H     8.6181303670    2.1831443638   -0.4665717511
     C     4.2025886003   -0.7253234052    0.6037526281
     H     4.1400004596   -0.8230505720    1.6985666990
     H     4.3842616073   -1.7396110862    0.2160803752
     C    -0.8347707565   -2.1950187186   -4.6151164107
     C     0.4688262951   -1.8355844026   -4.2292837813
     C     0.6496065669   -1.1313918006   -3.0511656797
     N    -0.3795725404   -0.7539594321   -2.2511751103
     C    -1.6379312448   -1.0953699828   -2.6345411612
     C    -1.9055518812   -1.8136833852   -3.7883935383
     C    -1.0618885369   -2.9296530930   -5.8192452125
     H     1.3222971468   -2.1072432149   -4.8405045208
     H     1.6442130734   -0.8472486612   -2.7291353432
     H    -2.4480936774   -0.7769798963   -1.9881849365
     H    -2.9274212406   -2.0708308911   -4.0453906200
     N    -1.2412279483   -3.5274247456   -6.8004572884
     C    -3.4805788892    3.5264158287   -1.5690761850
     C    -2.3006714832    3.3568656786   -2.3154003295
     C    -1.4112644163    2.3636504948   -1.9414543107
     N    -1.6163164487    1.5557049274   -0.8696234808
     C    -2.7570954183    1.7196479499   -0.1535975865
     C    -3.7071171945    2.6781213895   -0.4713547990
     C    -4.4295287664    4.5344752682   -1.9229866317
     H    -2.0892044788    3.9856186480   -3.1732674836
     H    -0.5037781305    2.1953422092   -2.5124100301
     H    -2.9104489727    1.0541099128    0.6874650158
     H    -4.6102960142    2.7673608248    0.1225874153
     N    -5.1999971628    5.3563712589   -2.2111420481
     C    -1.1733160729   -0.2584456007    4.2071554241
     C    -0.8758472383    1.0119290122    3.6825699751
     C    -0.5925105006    1.1309015846    2.3305304248
     N    -0.5848604974    0.0660202552    1.4931712394
     C    -0.8679706463   -1.1596872834    1.9983738479
     C    -1.1705856848   -1.3625119320    3.3366920374
     C    -1.4681973402   -0.4236194939    5.5961051782
     H    -0.8722314984    1.8898443550    4.3195965109
     H    -0.3734512937    2.0982016499    1.8912034545
     H    -0.8611290053   -1.9980773978    1.3060794210
     H    -1.4033169164   -2.3582814040    3.6984145139
     N    -1.6985354436   -0.5580338296    6.7278306226
