46
-1.5602670415774958e+03 frame 67   xyz file generated by TeraChem
    Ni    -0.0535434157    0.0726643251    0.0793994854
     C     3.8329782105    1.4000959379    2.4262025663
     C     2.8358561496    2.3281627572    2.1207178453
     C     1.7105981276    1.9038718844    1.4244596508
     N     1.5417711420    0.6169648411    1.0479138068
     C     2.5017042848   -0.2842452402    1.3524568042
     C     3.6614285665    0.0727055817    2.0300233132
     H     4.7259521295    1.7053704441    2.9629371990
     H     2.9250453539    3.3698021699    2.4100261017
     H     0.9239903858    2.5989999719    1.1520669753
     H     2.3231690087   -1.3093924039    1.0476421917
     H     4.4094924139   -0.6827390511    2.2453725664
     C    -3.8811473332   -1.2912986137   -2.3438812064
     C    -2.6063166518   -1.4214875261   -2.8973797720
     C    -1.5055098267   -1.0022747111   -2.1603580095
     N    -1.6272817717   -0.4876596271   -0.9163300914
     C    -2.8605926928   -0.3695922331   -0.3762761917
     C    -4.0071920249   -0.7516192445   -1.0628238196
     H    -4.7593695870   -1.6040675716   -2.9002864500
     H    -2.4597845163   -1.8364437547   -3.8888155965
     H    -0.5013259190   -1.0701268705   -2.5638007276
     H    -2.9166990503    0.0356610813    0.6279919784
     H    -4.9774614034   -0.6305929039   -0.5931915134
     C     0.9697084556    3.1684868437   -3.3528880945
     C     1.8642261805    2.1478445044   -3.0266148181
     C     1.5345625291    1.2643523001   -2.0061380094
     N     0.3673890016    1.3487908495   -1.3297198772
     C    -0.5023325784    2.3323226515   -1.6507894472
     C    -0.2311622088    3.2623203660   -2.6473670434
     H     1.2041228878    3.8769382382   -4.1414292838
     H     2.8091289634    2.0354780195   -3.5473458585
     H     2.2117326084    0.4714155565   -1.7089086063
     H    -1.4331766933    2.3617635390   -1.0951650292
     H    -0.9554508114    4.0398430762   -2.8654635283
     C    -1.1055693727   -3.0267002434    3.5316085680
     C    -0.9232280588   -3.4401789778    2.1972634132
     C    -0.6285825545   -2.5027224160    1.2240141393
     N    -0.4869093878   -1.1829310696    1.4911039614
     C    -0.6524187209   -0.7788142145    2.7742980539
     C    -0.9645823191   -1.6489781741    3.8001907620
     S    -1.4910502970   -4.0981346512    4.8600236396
     H    -1.0149759381   -4.4824474303    1.9107188423
     H    -0.5060488648   -2.8084161944    0.1906471757
     H    -0.5216295984    0.2792546231    2.9698018425
     H    -1.0916489169   -1.2585109100    4.8046896529
     H    -1.5134094995   -5.2422442931    4.1460521376
