19
-1.3708200744237993e+03 frame 92   xyz file generated by TeraChem
    Fe    -0.5092990078    0.7974221626    0.2744547782
     S     1.7098630253    1.3478974245    0.5898054080
     C     2.3645919799    0.1299794495    1.5393628457
     N     2.8258743892   -0.7205527051    2.2015045886
     S    -2.7499839737    0.4740164032   -0.1035035756
     C    -3.1666350122   -0.9618953861    0.6599644783
     N    -3.4577824925   -1.9643302358    1.1926810180
     C    -0.8509590280    3.5497289853   -1.1222398089
     N    -0.7162200908    2.5288094335   -0.5937228200
     C    -1.0187171487    4.8326308944   -1.7834705190
     H    -0.6770783397    4.7582978747   -2.8214567185
     H    -0.4285688070    5.5948352174   -1.2636922792
     H    -2.0751195127    5.1205853526   -1.7703928207
     C    -0.1826956256   -1.9249743769    1.6469963943
     N    -0.3047263634   -0.9088610398    1.1072886557
     C    -0.0308365025   -3.1954760105    2.3291941904
     H     0.2019511742   -3.9770120430    1.5978995438
     H    -0.9668290836   -3.4472635646    2.8389686426
     H     0.7882055811   -3.1228107171    3.0526786064
