16
-9.5736659545588770e+02 frame 91   xyz file generated by TeraChem
    Fe     0.0656400554   -0.1119349455    0.2497502233
     S     2.2346570832    0.3720514854    1.2328338666
     C     2.8096122977    1.6067661176    0.3038391124
     N     3.2021889111    2.4992455158   -0.3679946795
     C    -2.7151272511   -0.7009463578   -0.6210284344
     O    -1.4837202935   -0.7544199067   -0.6797124853
     H    -3.2336250031   -0.1892514373    0.2008031467
     H    -3.2998854119   -1.1814361355   -1.4148963518
     C     0.2086542850    2.3120921090   -1.5211088969
     O    -0.1388902099    1.5819340181   -0.5868217558
     H    -0.2360985698    3.3110568500   -1.5997412921
     H     0.9430591453    1.9852706621   -2.2675427965
     C     0.0183105991   -2.7041650981    1.7692670983
     O    -0.0213163431   -1.4800159297    1.6040676584
     H    -0.0887140667   -3.0980962832    2.7871093827
     H     0.1579537049   -3.3988129591    0.9302412595
