11
-5.1487623142864823e+02 frame 146   xyz file generated by TeraChem
    Cr     0.8420433329   -0.7138422990   -0.8448635781
     C     2.7164791070    1.0814990858    0.5530111418
     O     2.5178739691   -0.0019336949    0.0017148954
     H     1.9205799622    1.8332872510    0.6376923114
     H     3.7115555750    1.2931387201    0.9614010025
     C    -1.2165029642   -2.4192300333   -2.0637816684
     O    -0.2474518638   -1.6792805450   -2.2323936720
     H    -1.5875379327   -2.6488697859   -1.0567116392
     H    -1.7078970299   -2.8557677756   -2.9410041475
     F     0.1037514333    0.8230683665   -1.0383771303
     F     0.3619242660   -1.8590116461    0.3468103738
