41
-1.2389740835471839e+03 frame 64   xyz file generated by TeraChem
    Mn    -0.0278639938   -0.0369476981    0.0096749161
     C     4.6446833766    0.4152211367   -0.1139141515
     C     3.8890006054    0.3771674706   -1.3072227656
     C     2.5208174209    0.2075246584   -1.2326366239
     N     1.8757407795    0.0642225474   -0.0362975154
     C     2.5991914368    0.1087836989    1.1221092240
     C     3.9709242955    0.2792585277    1.1178304913
     C     6.0560265218    0.5903651098   -0.1561491234
     H     4.3705229589    0.4802967675   -2.2745029454
     H     1.9181181632    0.1767367076   -2.1351468520
     H     2.0576541803    0.0029703582    2.0550418334
     H     4.5142152345    0.3041245164    2.0572364084
     N     7.2114580527    0.7343111148   -0.1935478974
     C    -1.7515742186   -3.0493319813   -3.1707022864
     C    -0.4430739577   -3.2088960462   -2.6642094434
     C     0.0559084484   -2.2707735258   -1.7817647284
     N    -0.6734064458   -1.1825030529   -1.3894683167
     C    -1.9435466324   -1.0260481626   -1.8741808992
     C    -2.5063228492   -1.9310157059   -2.7539945642
     C    -2.2990540771   -3.9966526073   -4.0798970460
     H     0.1696526025   -4.0550935256   -2.9588078932
     H     1.0557401844   -2.3666689385   -1.3719210152
     H    -2.5052163702   -0.1600840408   -1.5393037001
     H    -3.5173916724   -1.7747861731   -3.1170248603
     N    -2.7476361107   -4.7718173553   -4.8251318933
     C    -1.4789883115    4.3492777240   -0.8641760458
     C    -1.1698026065    3.5129866782   -1.9610339957
     C    -0.7608500221    2.2146705863   -1.7284338099
     N    -0.6499064432    1.7138754871   -0.4628879246
     C    -0.9376294086    2.5221171143    0.6026817498
     C    -1.3569194299    3.8286722989    0.4413954477
     C    -1.9023102778    5.6911758919   -1.0745764424
     H    -1.2501971431    3.8806902134   -2.9792306107
     H    -0.5124771165    1.5521277564   -2.5496781801
     H    -0.8393018455    2.0908623522    1.5959755943
     H    -1.5882264265    4.4362505006    1.3105478353
     N    -2.2483971144    6.7898778349   -1.2487852143
     C    -0.6900319229   -1.6647131793    2.6082524945
     O    -0.3263921784   -0.8449471767    1.7523876279
     H    -0.8328806150   -2.7224202051    2.3519287062
     H    -0.8632218670   -1.3267371414    3.6381880213
