11
-1.2531826656852754e+03 frame 56   xyz file generated by TeraChem
    Mn     0.2238302991    0.0112778714   -0.0241957229
     C     3.3097806561    0.1625232083   -0.7091700205
     O     2.2105921171   -0.2604873461   -0.3642789474
     H     4.2011119637   -0.4623087640   -0.5667411327
     H     3.4208135863    1.1581627608   -1.1607407509
     C    -1.2183618187   -2.2994638423   -1.5275451843
     O    -0.3659429530   -1.4224730126   -1.4179000657
     H    -1.8695201783   -2.5736212391   -0.6855607385
     H    -1.3358382216   -2.8243952988   -2.4844749968
    Cl    -0.6546275961    1.9638606653   -0.3660657035
    Cl    -0.7444949847   -0.3679452111    1.8778554327
