11
-1.6297689000723317e+03 frame 41   xyz file generated by TeraChem
    Co     0.3435030466    0.6546291918   -0.1113023137
     N     1.8199951202   -0.0904743961    0.7249937442
     C     2.6615058030   -0.8290283197    1.1282695561
     S     3.8452708829   -1.7603875812    1.7113142643
     N     0.5702325701   -0.1532664118   -1.7239282075
     C     0.2408268815   -0.9833262710   -2.5148976281
     S    -0.0852219895   -2.0470001848   -3.6804415715
     N    -0.8379457407    1.9738611495   -0.6527105688
     C    -1.7188026684    2.6117161508   -1.1352101034
     S    -2.8784977963    3.5491898546   -1.7561575913
     I    -1.3928795521   -0.7918244598    1.0593934557
