45
-1.1161703474471005e+03 frame 46   xyz file generated by TeraChem
    Fe     0.3714101748    0.4736979952   -0.0755071545
     C     4.6655221782   -1.6372000757    0.0591356098
     C     4.4868258340   -0.2527694908    0.0465011678
     C     3.1934750574    0.2507246016   -0.0163440663
     N     2.0974489476   -0.5426317767   -0.0687694325
     C     2.2796080508   -1.8811736200   -0.0541617268
     C     3.5398930831   -2.4622917496    0.0081059159
     H     5.6621981176   -2.0647702480    0.1086714214
     H     5.3300672947    0.4283695434    0.0845100334
     H     3.0232657708    1.3269767614   -0.0259254657
     H     1.3805433492   -2.4842042281   -0.0986238537
     H     3.6332498818   -3.5430110734    0.0169659808
     C    -1.9116110846   -1.9996942656   -3.4189119110
     C    -0.5507211713   -1.7176144020   -3.5359949056
     C     0.0925005659   -1.0515836379   -2.4985907848
     N    -0.5574257194   -0.6519090085   -1.3800678169
     C    -1.8811653727   -0.9142626553   -1.2772300251
     C    -2.5841631981   -1.5909241482   -2.2651534211
     H    -2.4381708153   -2.5248098837   -4.2098084296
     H     0.0151675927   -2.0116166114   -4.4134788333
     H     1.1537771819   -0.8352678445   -2.5525341187
     H    -2.3737248660   -0.5616456387   -0.3786239981
     H    -3.6430323696   -1.7844465398   -2.1307340346
     C    -2.5355744663    4.2219127727   -0.6968336857
     C    -1.4652951594    3.9208481162   -1.5414540436
     C    -0.7081399992    2.7876522723   -1.2763592028
     N    -0.9564138172    1.9638121741   -0.2307472856
     C    -1.9943032648    2.2623326427    0.5818894135
     C    -2.8023448806    3.3751715550    0.3803130163
     H    -3.1496550088    5.0990009607   -0.8762318589
     H    -1.2197178542    4.5476891629   -2.3917644044
     H     0.1275126363    2.5206988542   -1.9223257586
     H    -2.1690330862    1.5846468834    1.4095785464
     H    -3.6249142992    3.5714692894    1.0596985359
     C    -0.6421425568   -1.0881144999    4.2726501714
     C    -0.9007797553   -1.9115411064    3.1757583310
     C    -0.6483974544   -1.4329938678    1.8949658904
     N    -0.1741064357   -0.1882474479    1.6734779633
     C     0.0753004806    0.6089310644    2.7375705521
     C    -0.1408189293    0.1949498692    4.0462688749
     H    -0.8260676932   -1.4388866848    5.2833780489
     H    -1.2904379119   -2.9157465073    3.3041989542
     H    -0.8287370967   -2.0467328874    1.0198472587
     H     0.4533314168    1.6057873164    2.5238263562
     H     0.0778108259    0.8711114709    4.8657573201
