13
-3.9075298999202420e+02 frame 39   xyz file generated by TeraChem
    Cr    -0.0202768106   -0.0701203541    0.0406754104
     O     1.8530556093    0.1779036634   -0.2358515368
     H     2.2697994491    0.3753075915   -1.1185932208
     H     2.5434861546    0.3475946709    0.4606899769
     O    -0.7819392564   -0.8305435646   -1.5503705325
     H    -1.6523188182   -0.6153381974   -1.9808822402
     H    -0.4452162173   -1.6528169213   -2.0011292599
     O    -0.9971958856    1.5724687068    0.0763391409
     H    -0.8792577552    2.2823888282    0.7643526954
     H    -1.5792996238    1.9557145948   -0.6324646751
     O    -0.0651184091   -0.9525156596    1.7364501216
     H     0.6136946048   -1.5825731165    2.1033653960
     H    -0.8592836624   -1.0070383794    2.3369851780
