8
-1.6404364024716610e+03 frame 34   xyz file generated by TeraChem
    Co     0.1843417262    0.6307870121   -0.2935282227
     C     2.7567318000   -0.5873604749    0.3393993646
     O     2.3542088438    0.4878533248   -0.0662076105
     H     2.0699980135   -1.4059054592    0.5943478382
     H     3.8409485367   -0.7604640250    0.4608131122
    Cl     0.1473702096   -1.1348481118   -1.8025845432
    Cl    -0.6090893778    2.5783800863   -1.1823078026
    Cl    -0.2092358788    0.1923698992    1.9492150057
