11
-1.2726913610670865e+03 frame 39   xyz file generated by TeraChem
    Fe     0.1129948782   -0.1892046803   -0.4310020846
     C     2.8347860665    0.3753224342    0.7162176457
     O     2.0943232117    0.1045784082   -0.2278129373
     H     2.4473675018    0.5154186395    1.7344218788
     H     3.9112668870    0.4796430740    0.5330713331
     C    -0.6919159098   -2.2126802492   -2.5759322589
     O     0.0980403728   -1.5700360675   -1.8873095984
     H    -1.7771001352   -2.0662581553   -2.4947791335
     H    -0.3004724243   -2.9494490265   -3.2881134915
    Cl    -0.8224241162    1.6854947000   -0.8846484249
    Cl    -0.6890507504   -1.1264589984    1.3353581805
