13
-3.9143141657812743e+02 frame 105   xyz file generated by TeraChem
    Cr    -0.0000839356   -0.0000140574    0.0001696397
     O     1.2250967747   -1.3486038236    0.8685289276
     H     1.7278591240   -2.0458067005    0.4052088680
     H     1.3716012473   -1.4701827885    1.8262536803
     O     0.4430637094   -0.7910378622   -1.8486508699
     H     1.2119971203   -0.5788143319   -2.4134179293
     H    -0.0939789413   -1.4494390817   -2.3307427157
     O    -1.2252935614    1.3485874399   -0.8683820194
     H    -1.3756040595    1.4662142121   -1.8259999460
     H    -1.7309181079    2.0440108984   -0.4055300688
     O    -0.4404506090    0.7909689845    1.8494430697
     H     0.0987517387    1.4483153647    2.3305617170
     H    -1.2120630951    0.5847426589    2.4127491084
