13
-2.0506024940412717e+03 frame 22   xyz file generated by TeraChem
    Cr     0.2893913111    0.4537293897   -0.2658753405
     S     2.5096680363    0.7629705381    0.0064260092
     C     3.0763044668   -0.7501205167    0.5458267070
     N     3.5178847008   -1.7676768764    0.9250149477
     S    -0.5350625263   -0.4772325208   -2.1421045147
     C    -0.2460953821   -2.1336596713   -1.8714791432
     N    -0.0721503895   -3.2842252783   -1.7284620986
     S    -0.1199035091    2.6532230858   -0.6235405578
     C    -1.6837761054    2.7883980146   -1.2842770972
     N    -2.7538484046    2.9358220965   -1.7406112682
     N    -0.5428245726   -0.1232785361    1.2778505769
     C    -1.1495020992   -0.2688999984    2.3038153544
     S    -1.9482716511   -0.5048198675    3.6720958924
