16
-5.4287005218602349e+02 frame 74   xyz file generated by TeraChem
    Fe     0.1314719250    0.0970345204   -0.0489433347
     C     3.1729487267   -0.4724102928   -0.7637888426
     O     2.0749245979   -0.1185475643   -0.3324288371
     H     4.0882344574   -0.0397124305   -0.3403297831
     H     3.2527964772   -1.2158587523   -1.5678884641
     C    -1.4229475263   -1.8897527658   -1.9990060704
     O    -1.0390267594   -1.0785041310   -1.1563615734
     H    -2.4966077428   -2.0835831667   -2.1178989418
     H    -0.7083498011   -2.4263692777   -2.6372378310
     C    -1.1704319369    2.9799585082   -0.2168072608
     O    -0.5970423559    1.9087572006   -0.4155581509
     H    -1.5659843671    3.2377080674    0.7748796911
     H    -1.2888765626    3.6924469080   -1.0430352000
     O    -0.1467528311   -0.2897818156    1.9285996672
     H     0.5118691270   -0.1650482977    2.6376556676
     H    -0.9647727085   -0.6186039226    2.3464654122
