31
-1.7323953880434908e+03 frame 205   xyz file generated by TeraChem
    Mn     0.2579985160    0.0548930467   -0.1599470886
     O     1.8697705444    0.7934837597    0.2091350290
     N     2.4575147641    2.4237734971    1.9380744680
     C     2.2064425972    1.6429179570    1.1012840578
     O    -0.7374900384   -1.0519612562   -1.2030898496
     N    -3.1734050060   -1.2486148339   -1.3402419309
     C    -2.0043793969   -1.1716092134   -1.3006379879
     C    -2.1956853027    3.9772907337   -1.3209844302
     C    -0.8071431747    3.8752162665   -1.5531168601
     C    -0.1400619521    2.7356934286   -1.1390933534
     N    -0.7754872715    1.7130227878   -0.5080623199
     C    -2.1073758849    1.8030118711   -0.2782011914
     C    -2.8474706708    2.9075212668   -0.6659221677
     S    -3.1708663836    5.3426746024   -1.8024526593
     H    -0.2460467528    4.6607362661   -2.0484755957
     H     0.9260115294    2.6303312077   -1.3093390274
     H    -2.5900463901    0.9585357563    0.2000368693
     H    -3.9149496715    2.9249099818   -0.4700347377
     H    -2.1874992335    6.0703200904   -2.3790251926
     C    -0.7549856162   -1.6770950833    4.1784422619
     C    -0.3355381770   -0.3370580512    4.0325326994
     C    -0.1103053821    0.1617357435    2.7603448063
     N    -0.2736631308   -0.5949369002    1.6470734912
     C    -0.6778689160   -1.8860388127    1.7765096804
     C    -0.9307778478   -2.4559910725    3.0120812799
     S    -1.0610980233   -2.4464562150    5.7150499477
     H    -0.1713531566    0.3119008791    4.8865160953
     H     0.2447876597    1.1787829549    2.6261024583
     H    -0.7946218085   -2.4650209190    0.8673006963
     H    -1.2512363665   -3.4920433191    3.0614231944
     H    -0.7674350911   -1.3898709289    6.5065584467
