41
-2.1980667001204565e+03 frame 114   xyz file generated by TeraChem
    Co     0.0184620394    0.4676011873   -0.2316183633
     C     2.7102167210   -0.0617370653   -1.3171764932
     O     1.9545434545    0.0979394827   -0.3543423468
     H     2.3304298340   -0.2328974839   -2.3334299825
     H     3.7943865982   -0.0339782381   -1.1509686705
     C    -1.2838226964   -2.7721207463   -3.3950292302
     C    -0.5288677412   -3.0952856200   -2.2393827456
     C    -0.1656764737   -2.1030163074   -1.3539966952
     N    -0.4978922817   -0.7946857111   -1.5461828152
     C    -1.2500453433   -0.4690952453   -2.6391083828
     C    -1.6348423013   -1.4089251122   -3.5689333189
     S    -1.8019257078   -3.9108952370   -4.5935892970
     H    -0.2141597830   -4.1135385106   -2.0340922290
     H     0.4162501217   -2.3382537192   -0.4697485732
     H    -1.5005982442    0.5758586167   -2.7749213119
     H    -2.1941608377   -1.0817070004   -4.4403425379
     H    -1.2798062075   -5.0159628011   -4.0193473090
     C    -3.3952084605    3.6695994827   -0.1883790394
     C    -2.0127657913    3.9383969729   -0.0303239994
     C    -1.1132398485    2.8965365962   -0.0571092658
     N    -1.4891058489    1.5954352387   -0.2484233983
     C    -2.8153737437    1.3225264972   -0.3922024646
     C    -3.7740826646    2.3102255109   -0.3694255374
     S    -4.6472756035    4.8628011885   -0.1773005789
     H    -1.6409697919    4.9474557750    0.1145357627
     H    -0.0504791923    3.0970881762    0.0752764991
     H    -3.0923411566    0.2854336564   -0.5463426796
     H    -4.8173258706    2.0361137118   -0.4947436904
     H    -3.8592668017    5.9422552568    0.0191801130
     C    -0.1840997150   -1.2243051247    4.1670187601
     C    -1.3406430794   -1.1199727111    3.3515040822
     C    -1.2395808140   -0.5970429778    2.0820377478
     N    -0.0606911564   -0.1501868665    1.5622777856
     C     1.0707433987   -0.2810945032    2.3212195566
     C     1.0391498746   -0.7826836066    3.6019649509
     S    -0.1610186322   -1.8492378269    5.7795071639
     H    -2.3170228869   -1.4296169499    3.7101585590
     H    -2.1191191574   -0.5083129505    1.4579510242
     H     2.0013582786    0.0657825592    1.8943062632
     H     1.9640100247   -0.8161651072    4.1699962056
     H    -1.4759814888   -2.1443077750    5.8718937015
