25
-6.1689757078546938e+02 frame 90   xyz file generated by TeraChem
    Cr    -0.0035362630    0.0007863375   -0.0045996115
     C     2.8310088432    0.5665720687   -1.3874922399
     N     1.8042831001    0.3644686232   -0.8892983639
     C     4.1192490187    0.8185227120   -2.0093858579
     H     4.9199231179    0.6380756016   -1.2832023031
     H     4.1712885752    1.8581065451   -2.3506587793
     H     4.2547583771    0.1509294605   -2.8673671476
     C     0.4411188232   -3.1356724707   -0.4769319258
     N     0.2803370816   -2.0007519961   -0.3052825094
     C     0.6434867048   -4.5582534305   -0.6898225047
     H     1.3669054521   -4.9407101942    0.0390345240
     H     1.0266838127   -4.7308533446   -1.7016119758
     H    -0.3055598820   -5.0915968482   -0.5686957258
     C    -0.4463804719    3.1375262800    0.4670932710
     N    -0.2865005495    2.0023214702    0.2966262343
     C    -0.6468203720    4.5601902865    0.6810688122
     H     0.2274270685    5.1168146510    0.3263954097
     H    -0.7894789643    4.7572979848    1.7494042775
     H    -1.5334213988    4.8954628108    0.1313328002
     C    -2.8322540817   -0.5668635235    1.3872171428
     N    -1.8089943550   -0.3632463911    0.8824719562
     C    -4.1139959292   -0.8214168235    2.0214771031
     H    -4.8315333043   -0.0454307539    1.7329798361
     H    -3.9942813221   -0.8132364518    3.1107625491
     H    -4.4961838961   -1.7992323571    1.7089105184
