13
-2.0877885207895238e+03 frame 46   xyz file generated by TeraChem
    Fe    -0.1231155880    0.4088534980   -0.0190238127
     S     2.1113644790    0.7514692995    0.3213781766
     C     2.6787342649   -0.1917993486    1.6118802022
     N     3.1776639051   -0.7975454558    2.4827279087
     N    -0.3810158711   -1.0674539209   -1.1669616521
     C    -0.5982953895   -1.9598537811   -1.9056944162
     S    -0.9096784725   -3.2071963437   -2.9356919927
     N    -0.1349202478    1.7757633726   -1.3936639120
     C    -0.2580133034    2.6957907223   -2.1245323831
     S    -0.4392420275    3.9845694519   -3.1316918809
     N    -0.6656821990   -0.4321076301    1.6296316784
     C    -1.2110970515   -0.7601015338    2.6258161188
     S    -1.9831228576   -1.1995509793    4.0090054745
