13
-1.0994236766839344e+03 frame 57   xyz file generated by TeraChem
    Mn     0.0056755706   -0.0033837001    0.0249939390
     N     2.0405223751    0.3172595446    0.3462019721
     C     3.1913383598    0.5119363341    0.5382848303
     S     4.7887401753    0.7832884157    0.8054545272
     O    -0.2709411902   -1.5595338840   -1.2498011598
     N    -0.2992618753   -2.3487057160   -3.5499398986
     C    -0.2811752740   -1.9443052732   -2.4399602577
     O    -0.8026250996    1.6633650574   -0.8193895441
     N    -2.4902633145    3.4140383763   -0.8081830363
     C    -1.6800425637    2.5538511460   -0.7960286415
     O    -0.9117569812   -0.3137403658    1.8096688063
     N    -1.6545687865   -1.9169933049    3.4812264964
     C    -1.2868475876   -1.1546015526    2.6568704520
