11
-3.7503777989524383e+02 frame 50   xyz file generated by TeraChem
    Fe     0.7064265822   -0.6548118998   -0.7332817143
     C     3.3381755865    0.3329004720    0.2399879200
     O     2.5819985956   -0.3448403379   -0.4537165349
     H     2.9515481711    1.0391723517    0.9851488245
     H     4.4205141250    0.2240526204    0.1055813711
     C    -1.5988177523   -1.9960797504   -2.0824868980
     O    -0.4132007449   -1.7519926785   -1.8692504814
     H    -2.3958080893   -1.4967147329   -1.5177226324
     H    -1.8589087537   -2.7296086372   -2.8544721175
     I    -0.4724220780    1.7195717995   -0.6977705287
     I    -0.3141941128   -1.0316508412    1.6901506300
