17
-1.4752832250261326e+03 frame 55   xyz file generated by TeraChem
    Mn     0.0518769221    0.0538340439   -0.0080533022
     P     2.2968135767   -1.1348454175    0.4230560130
     H     3.0706147127   -0.5195345745    1.4268241291
     H     2.1381813985   -2.4751054485    0.8268643420
     H     3.1303746357   -1.1696084050   -0.7122838459
     P    -0.2155696590   -1.1169222346   -2.2940396955
     H     0.2577566162   -2.4433903559   -2.3111951708
     H    -1.5534976947   -1.1993815942   -2.7265041743
     H     0.4807358670   -0.4464764823   -3.3194067232
     P    -1.7505290996    1.7873617594   -0.6399146526
     H    -3.0607516569    1.2829032317   -0.5252401269
     H    -1.7113101533    2.9441284667    0.1631241185
     H    -1.6311629656    2.2557442646   -1.9632821426
     P    -0.3173559869    0.4744346508    2.5112240176
     H     0.1355951859   -0.5761542639    3.3326932045
     H     0.3498735742    1.6309151175    2.9620079348
     H    -1.6719200815    0.6520558956    2.8539199716
