13
-5.5648185642109399e+02 frame 46   xyz file generated by TeraChem
    Co     0.2968745822    0.1836164125   -0.0015006790
     C     2.2202220471    0.1563496666    0.5839127354
     N     3.3261662025    0.1231624544    0.9662896951
     C    -0.2591649997   -1.2091051968   -1.3376314568
     N    -0.6114270125   -2.0406762664   -2.0825637464
     C    -0.5562234606    1.9870628098   -0.2292543813
     N    -1.0804080984    3.0290648112   -0.3290156776
     C    -1.2434325118   -0.9693243180    2.7179625982
     N    -0.7005095681   -0.5530167883    1.7871251333
     C    -1.9296333167   -1.4961716549    3.8913525580
     H    -2.9737461289   -1.7145843509    3.6468909690
     H    -1.9004838216   -0.7629497028    4.7032075223
     H    -1.4432816586   -2.4173581964    4.2268374216
