101
-2.0958425574374828e+03 frame 285   xyz file generated by TeraChem
    Ni     0.0584781144   -0.0439424013    0.0268243953
     C     1.6750830576    0.2766692345   -0.8749467176
     N     2.6669855793    0.4759710708   -1.4487843395
     C     3.8392359468    0.7059175182   -2.1487326228
     C     4.6517223082    1.7973103887   -1.8024585466
     C     5.8143294325    2.0156430082   -2.5248832478
     C     6.1994651378    1.1800937672   -3.5948752521
     C     7.4903355246    1.4788657556   -4.3701283734
     C     7.3777941469    2.8879853212   -5.0052895613
     C     8.6887432529    1.4475803356   -3.3891671126
     C     7.7478842008    0.4584561173   -5.4950261865
     C     5.3596921895    0.0957460422   -3.9070705474
     C     4.1894429118   -0.1521384194   -3.1990475328
     H     4.3722723601    2.4492481082   -0.9812057160
     H     6.4398463636    2.8582393422   -2.2519541367
     H     6.5360610199    2.9417416363   -5.7044378551
     H     8.2933816927    3.1142862783   -5.5616171058
     H     7.2470078166    3.6730625164   -4.2531700272
     H     8.7928433978    0.4636165942   -2.9188913034
     H     8.5923436857    2.1957983719   -2.5956351077
     H     9.6149077093    1.6617752125   -3.9326125670
     H     7.8663028009   -0.5606281129   -5.1094278038
     H     8.6748541197    0.7183596032   -6.0148907202
     H     6.9451770616    0.4598494536   -6.2408877088
     H     5.6167904858   -0.5703960763   -4.7210160038
     H     3.5490252056   -0.9891877063   -3.4576838740
     C     0.2723027287   -1.8870644290   -0.2568225902
     N     0.3906517802   -3.0284480437   -0.4483290355
     C     0.5111802360   -4.3865503340   -0.6844521920
     C    -0.6397057291   -5.1910313755   -0.6714027851
     C    -0.5074051529   -6.5470588330   -0.9230476146
     C     0.7448527164   -7.1405176916   -1.1907734630
     C     0.8282048573   -8.6460300639   -1.4770044498
     C     0.2906823595   -9.4228396818   -0.2491114453
     C    -0.0437047273   -8.9693937314   -2.7165169510
     C     2.2687659826   -9.1113577799   -1.7607227255
     C     1.8740073340   -6.3016720772   -1.1861934562
     C     1.7736284813   -4.9370135909   -0.9387836120
     H    -1.6122110969   -4.7510470733   -0.4759317179
     H    -1.4020944238   -7.1599032894   -0.9157537530
     H     0.8927259380   -9.2217816622    0.6438429884
     H     0.3304483536  -10.4988574066   -0.4481962566
     H    -0.7498488033   -9.1682488356   -0.0224205679
     H     0.3187643195   -8.4413101501   -3.6053424143
     H    -1.0945364654   -8.7006724458   -2.5669152261
     H    -0.0046916221  -10.0439558992   -2.9238130385
     H     2.6956354667   -8.6142102866   -2.6392126770
     H     2.2673901065  -10.1862001092   -1.9649900634
     H     2.9339168649   -8.9440633358   -0.9058814382
     H     2.8565564585   -6.7134854649   -1.3803821822
     H     2.6562432625   -4.3056020084   -0.9381665017
     C    -0.1691993477    1.8007701250    0.2940699520
     N    -0.3163864478    2.9438367988    0.4518149667
     C    -0.4966106815    4.3038952931    0.6356879869
     C    -1.2016131759    4.7613519760    1.7603199781
     C    -1.3779030897    6.1259676097    1.9252714515
     C    -0.8757528462    7.0637962567    0.9978387162
     C    -1.1115995773    8.5630918798    1.2261623769
     C    -2.6374654594    8.8303531355    1.2551697765
     C    -0.4879138143    8.9729980178    2.5837986378
     C    -0.4839703868    9.4312735474    0.1194336243
     C    -0.1738120884    6.5643505467   -0.1140555933
     C     0.0230941235    5.2013875238   -0.3055854253
     H    -1.5923280175    4.0549012964    2.4854964614
     H    -1.9212022095    6.4718125238    2.7976980075
     H    -3.1072140954    8.5579255372    0.3035263725
     H    -2.8221431542    9.8956594795    1.4289948927
     H    -3.1395682581    8.2745619527    2.0539900667
     H     0.5928205513    8.7940891909    2.5946350493
     H    -0.9312383320    8.4306518020    3.4253798978
     H    -0.6550823350   10.0412622616    2.7566034730
     H     0.6046668420    9.3139810214    0.0710533767
     H    -0.6871460365   10.4859175018    0.3278441138
     H    -0.9044998084    9.2098775688   -0.8682056660
     H     0.2278241407    7.2470186994   -0.8524431622
     H     0.5625060677    4.8331824551   -1.1722562427
     C    -1.5555565017   -0.3581638319    0.9355921729
     N    -2.5423859941   -0.5348785801    1.5254788396
     C    -3.7076472702   -0.7311113533    2.2469854183
     C    -3.8538738877   -1.8938793457    3.0203065213
     C    -5.0133576430   -2.0581014158    3.7614087531
     C    -6.0454166316   -1.0956639484    3.7599384761
     C    -7.2971195587   -1.3197640355    4.6189166513
     C    -8.0067475703   -2.6170009083    4.1550031806
     C    -6.8688981339   -1.4685441008    6.1007010164
     C    -8.2959625252   -0.1520376874    4.5162892970
     C    -5.8663409234    0.0475138589    2.9602149828
     C    -4.7137918232    0.2425509631    2.2077302452
     H    -3.0652700330   -2.6390027014    3.0421439852
     H    -5.1187602452   -2.9545291300    4.3623573680
     H    -8.3355169859   -2.5401970385    3.1128255117
     H    -8.8902988287   -2.7921195723    4.7772573404
     H    -7.3603321581   -3.4965220655    4.2439889993
     H    -6.3588343737   -0.5680214537    6.4604076506
     H    -6.2020511373   -2.3229559751    6.2566210007
     H    -7.7550607217   -1.6258590966    6.7241666864
     H    -7.8581878738    0.7944000323    4.8538241686
     H    -9.1593580786   -0.3567193491    5.1563698343
     H    -8.6731052477   -0.0193452297    3.4957904929
     H    -6.6367850218    0.8075271234    2.9225332574
     H    -4.5916563979    1.1309154391    1.5964925589
