61
-1.8604197353189716e+03 frame 72   xyz file generated by TeraChem
    Fe    -0.2923174059    0.1133345379    0.3382060375
     C     1.8414555030    0.1441183764    0.2174773152
     N     3.0021863048    0.1073312110    0.2295602450
     C     5.1596920890    0.6706794329   -0.8713088024
     C     5.4678155642   -0.0856523528   -2.0070862071
     C     6.1867732984    0.4919385287   -3.0771620229
     C     6.6016468805    1.8220194265   -3.0092434005
     C     6.3018122301    2.5782481828   -1.8763725957
     C     5.5812925418    2.0029662233   -0.8057551008
     H     5.1797727708   -1.1321656728   -2.0666419643
     H     6.4282601545   -0.1142290633   -3.9446510933
     H     6.6339243029    3.6089576232   -1.8014770435
     H     5.3808329221    2.6002715040    0.0800508825
     H     7.1671326478    2.2602521225   -3.8251397414
     C     4.4518655596    0.0322553187    0.3087762323
     H     4.7267800762    0.5151844731    1.2516266874
     H     4.6919027524   -1.0325371013    0.3923876103
     C    -0.9364466050   -1.3359204466   -1.0820550669
     N    -1.2316799920   -2.1294148777   -1.8775452806
     C    -2.9773951290   -3.6135150601   -2.8399847399
     C    -3.3105268018   -4.7445816385   -2.0875814826
     C    -4.6340812597   -5.2423257425   -2.0902725003
     C    -5.6217047810   -4.6122241979   -2.8473147426
     C    -5.2932565875   -3.4874481703   -3.6034715522
     C    -3.9702951721   -2.9884089594   -3.6018479859
     H    -2.5503494399   -5.2668703359   -1.5122596984
     H    -4.8697421843   -6.1287299871   -1.5096682432
     H    -6.0464503129   -2.9962274235   -4.2115512275
     H    -3.7290240641   -2.1273236695   -4.2199115446
     H    -6.6338866263   -5.0030920054   -2.8596294754
     C    -1.5433200026   -3.1200627622   -2.8919898207
     H    -1.3172656454   -2.6482039904   -3.8534408005
     H    -0.8327585628   -3.9393713991   -2.7446963924
     C    -1.0718307404    1.9932871077   -0.2960375469
     N    -1.5107152375    3.0008114836   -0.6707671558
     C    -2.0965438121    5.3606672398   -0.1630515163
     C    -1.0369034932    6.2693689061   -0.0716910779
     C    -1.0961634816    7.3458719540    0.8404219501
     C    -2.2137264773    7.5143685757    1.6579714089
     C    -3.2746956690    6.6133578458    1.5669574526
     C    -3.2179008167    5.5372469596    0.6546897848
     H    -0.1690335074    6.1687117560   -0.7183783133
     H    -0.2707738713    8.0491496019    0.8888766018
     H    -4.1579237607    6.7423984608    2.1846113610
     H    -4.0665555818    4.8621745209    0.5778927559
     H    -2.2638541508    8.3488415288    2.3497920165
     C    -2.0622368155    4.2423702348   -1.1869407606
     H    -1.4467241662    4.5049905201   -2.0531417805
     H    -3.0654179683    3.9974251647   -1.5502874392
     C    -1.7261043299   -1.3677668017    4.7132888008
     C    -2.5833908099   -0.6170102341    3.8779288069
     C    -2.1430134390   -0.2181011199    2.6334931047
     N    -0.9042281168   -0.5080450319    2.1527087375
     C    -0.0787578168   -1.2379968478    2.9535258926
     C    -0.4408802068   -1.6746754940    4.2079478700
     S    -2.1388630393   -1.9382419579    6.3051254128
     H    -3.5843135432   -0.3449120983    4.1955496600
     H    -2.7934495853    0.3597128087    1.9833113978
     H     0.9064665607   -1.4691240196    2.5598144319
     H     0.2666295325   -2.2491646135    4.7971399390
     H    -3.3882155618   -1.4303195442    6.3493440456
