14
-1.6740234622007379e+03 frame 56   xyz file generated by TeraChem
    Cr    -0.4633632596    0.2786084991    0.0682682365
     N     1.3355805582    0.5757160593    0.3753459716
     C     2.5073726798    0.8104127597    0.2298539200
     S     4.0627633250    1.1104714564    0.1029027607
     N    -0.7413480280   -1.3128926356   -0.8251031381
     C    -0.7626406361   -2.2953285245   -1.5152062447
     S    -0.8153732413   -3.6175178868   -2.4022382123
     N    -1.2605478235    1.7492737034   -0.7141645035
     C    -1.6484107534    2.6988494415   -1.3464920134
     S    -2.1829059525    3.9542640371   -2.1555779154
     C    -0.2086032332   -1.1782478148    2.6439979883
     O    -0.9234042252   -0.5198475327    1.8976570720
     H     0.8224240973   -1.4377511231    2.3696645415
     H    -0.6030203662   -1.5130403567    3.6123156044
