13
-1.6731531919126630e+03 frame 58   xyz file generated by TeraChem
    Fe     0.3018733804    0.4361836286   -0.4687334591
     N     1.9969935440   -0.4454487208   -0.6643937811
     C     3.0853296164   -0.9204700876   -0.6465975625
     S     4.5845588451   -1.5529413143   -0.6025897533
     N    -0.7683068716   -0.5799070923   -1.6113067436
     C    -1.4859203665   -1.3233242281   -2.1883044985
     S    -2.4669379215   -2.3251473411   -3.0204585419
     N    -0.8912105339    1.8513249367    0.0503540600
     C    -1.5200370689    2.7449935097    0.5152938582
     S    -2.3602202389    3.9774260270    1.1674764030
     O    -0.0201084273   -0.4628132026    1.2726636385
     H    -0.2931653172    0.2386764669    1.8905424661
     H     0.8545595524   -0.7901763056    1.5486647913
