12
-1.7111425696278698e+03 frame 63   xyz file generated by TeraChem
    Co     0.3128410008    0.3677402990   -0.3424293011
     S     2.5687108062    0.9358713759    0.0371964336
     C     3.4372629233   -0.1335222369    1.0276651209
     N     4.1535150597   -0.7828055004    1.7034178881
     S    -1.7638061616   -0.0289612078   -1.3321773043
     C    -2.1354930444   -1.6784778687   -1.4782737105
     N    -2.5081244286   -2.7825088537   -1.6627236898
     S     0.0825544411    2.7443217721   -0.7205900645
     C    -1.0855609017    3.1984734626   -1.8595669605
     N    -1.8692298163    3.6142550288   -2.6388091432
     C     0.4453786911   -1.3252152994    0.4491749783
     N     0.5103740827   -2.3587696652    1.0098050176
