11
-1.6081516781760458e+03 frame 52   xyz file generated by TeraChem
    Fe     0.2867927980    0.4410915460   -0.1394643454
     N     2.0069168088   -0.3820537535    0.1717578302
     C     3.1335271814   -0.7059886455    0.3146507998
     S     4.7094322856   -1.1417222041    0.5125128323
     N    -0.3232777363   -0.8133031498   -1.4157214251
     C    -0.6625364778   -1.5585499053   -2.2629143772
     S    -1.1349663917   -2.5981916877   -3.4522097092
     N    -0.9392269013    1.8651831597   -0.6010091910
     C    -1.5149248953    2.8507044342   -0.9043317042
     S    -2.3044573013    4.2328427916   -1.3266826604
     I    -0.7358564944   -0.0945201845    2.2786848915
