31
-2.3982314375128090e+03 frame 19   xyz file generated by TeraChem
    Fe     0.0308500532   -0.0340468222   -0.1627579654
     N     1.8096248311    0.2734837047    0.0907070132
     C     2.9317301564    0.4489368984    0.5137939046
     S     4.4192574532    0.6787061286    1.0272960173
     N    -1.0615650818   -1.0223050776   -1.2392999622
     C    -1.8822884095   -1.1744157491   -2.1210422662
     S    -2.9511786179   -1.4569239773   -3.2627273922
     C    -1.9073946861    4.2207777189   -0.9218201787
     C    -0.5273182905    4.0024205149   -1.1162972985
     C     0.0169339371    2.7563009939   -0.8441152853
     N    -0.7351095591    1.7185374075   -0.3890993550
     C    -2.0677691676    1.9164827356   -0.2006875343
     C    -2.6779264640    3.1343952710   -0.4492176455
     S    -2.7214609625    5.7499746910   -1.2296906758
     H     0.1296648625    4.7911233453   -1.4772546153
     H     1.0751607271    2.5550608646   -0.9813380016
     H    -2.6423571458    1.0612045753    0.1455754247
     H    -3.7490375453    3.2334659673   -0.2840518215
     H    -1.6309106119    6.4294148405   -1.6582826276
     C    -1.1557060936   -1.5522670249    4.1715116961
     C    -0.5864028393   -0.2753343826    3.9761485190
     C    -0.2965202982    0.1546161369    2.6903719081
     N    -0.5445219712   -0.6082653391    1.5949357180
     C    -1.0914903512   -1.8420789081    1.7684464663
     C    -1.4055809901   -2.3368535602    3.0240214277
     S    -1.5695793880   -2.2206821060    5.7460657200
     H    -0.3616662760    0.3819106115    4.8136180972
     H     0.1578470709    1.1263326006    2.5124353288
     H    -1.2730061554   -2.4199950951    0.8662276289
     H    -1.8409726598   -3.3309850858    3.1055358127
     H    -1.1545224343   -1.1640054478    6.4850673837
