9
-1.1284870604553275e+03 frame 16   xyz file generated by TeraChem
    Fe     0.3677835600   -0.3320120032   -0.3812963436
     N     2.1644477573   -0.0534253336   -0.0576074728
     C     3.2935107624    0.2251785415    0.2562135134
     S     4.8347831983    0.5615917307    0.6377783515
     N    -0.6672225827   -1.4416795295   -1.4263708134
     C    -1.4469108724   -2.0923341589   -2.0738673856
     S    -2.4523394830   -3.0011726607   -2.9667684988
     I    -0.4594992164    1.9739543733   -1.2007651300
     I    -0.5873661228   -0.7036095253    1.9872570947
