65
-1.9881787588570519e+03 frame 61   xyz file generated by TeraChem
    Cr     0.3965336248   -0.4162677253   -0.4641014333
     N    -0.9729152631   -1.3254582366   -1.7244948745
     N    -0.5295927830   -1.7031993556    0.8685762471
     C    -1.0574050377   -1.1660998781   -3.0588286606
     H    -0.4360224068   -0.3906762949   -3.4957456749
     C    -1.8782696974   -1.9516457384   -3.8583822940
     H    -1.8920448574   -1.7857743514   -4.9306617315
     C    -2.6597688564   -2.9518577445   -3.2711660941
     C    -2.5741249634   -3.1090963637   -1.8796603149
     H    -3.1379217465   -3.8958948892   -1.4000951159
     C    -2.3549367731   -3.2429580786    1.1235165162
     H    -3.1727394307   -3.7958287753    0.6848050188
     C    -2.1595606538   -3.2923086577    2.5120385524
     C    -1.1189692498   -2.5251957165    3.0462333125
     H    -0.9211794510   -2.5129707150    4.1131083228
     C    -0.3332430761   -1.7535099947    2.1999233913
     H     0.4726023152   -1.1425862948    2.5935166434
     C    -1.7231157565   -2.2995189880   -1.1340554300
     C    -1.5433400403   -2.4399227516    0.3290121892
     C    -3.0527065417   -4.1265911548    3.3932838520
     C    -3.5416093753   -3.8489467931   -4.1004580038
     C    -3.2749370250   -5.3491037488   -3.8422317378
     H    -4.5977402895   -3.6655447015   -3.8532035022
     H    -3.4253893716   -3.6161491829   -5.1644439890
     C    -4.5546967546   -3.8526707661    3.1570926494
     H    -2.7966979984   -3.9712107860    4.4469385049
     H    -2.8863883940   -5.1940946021    3.1854292042
     O    -4.9796971895   -3.3019020747    2.1722728802
     O    -5.3845342715   -4.3052590516    4.1078715596
     H    -4.9153058402   -4.7281110523    4.8476953490
     O    -2.7053129415   -5.7589296578   -2.8618867724
     O    -3.7541218424   -6.1931524626   -4.7670464356
     H    -4.1919748331   -5.7346426373   -5.5048313751
     N     2.2220183914    0.0780511369    0.3829072812
     N     0.6757489335    1.4797044871   -1.2690101882
     C     3.0028585947   -0.7313924740    1.1237859140
     H     2.5807004415   -1.6915259583    1.4045685313
     C     4.2921757247   -0.3856627283    1.5093384125
     H     4.8784969715   -1.0869705973    2.0940393783
     C     4.8162852546    0.8532702062    1.1270092671
     C     3.9976770106    1.6949353825    0.3598074090
     H     4.3866038685    2.6432660202    0.0194869400
     C     2.1012759405    3.4129530134   -1.2215692828
     H     3.0033654304    3.8944203969   -0.8737270684
     C     1.1859303417    4.1476614307   -1.9897093457
     C     0.0084894043    3.5024551295   -2.3815551020
     H    -0.7463493071    4.0169459680   -2.9672918908
     C    -0.2046230735    2.1818051724   -2.0082194450
     H    -1.1131888652    1.6628898382   -2.2939534331
     C     2.7205154586    1.2855062613   -0.0097993944
     C     1.8231600293    2.0979174487   -0.8634014956
     C     1.4593840688    5.5808558796   -2.3658202632
     C     6.2158475067    1.2661893396    1.5019547622
     C     7.0538162484    1.7171693902    0.2843139737
     H     6.1784863124    2.1177416230    2.1975412468
     H     6.7227741328    0.4532112405    2.0330402923
     C     1.8559903842    6.4606100226   -1.1595899228
     H     0.5923863688    6.0085697237   -2.8809211905
     H     2.2967485593    5.6210739144   -3.0784782533
     O     2.2154566760    6.0114151227   -0.0999215943
     O     1.8182210931    7.7838241529   -1.3723501675
     H     1.5088717847    8.0131929318   -2.2656235536
     O     6.5702046287    2.0108100807   -0.7802705899
     O     8.3756626969    1.8030608732    0.4913092259
     H     8.6339235899    1.5388649967    1.3912114956
