13
-1.4417750736838532e+03 frame 47   xyz file generated by TeraChem
    Fe    -0.1986809547    0.3919547867   -0.1355288521
     S     1.8132935061    0.8076413494   -1.1552505072
     C     3.0296406298   -0.2025094882   -0.5451962887
     N     3.9490943862   -0.8392063908   -0.1922781422
     S    -1.5640547030   -0.8842549794   -1.4743646041
     C    -1.2539933805   -2.5338912388   -1.2407893688
     N    -1.1196172039   -3.6963526860   -1.1660776095
     O    -1.0461918674    1.9791318434   -1.0011653912
     N    -1.0930767266    4.2742678443   -0.1855073940
     C    -1.0461067167    3.1531001940   -0.5572090809
     O     0.4384824711   -0.9170427726    1.1813917864
     N    -0.7671336687   -1.3179935287    3.2629051903
     C    -0.2069448941   -1.1152682850    2.2421054231
