25
-9.1889889617213362e+02 frame 104   xyz file generated by TeraChem
    Fe    -0.7745777139    0.7536686645    0.8328616970
     O     0.8887774820    1.0251574690    1.6850046756
     N     2.1924189281    2.8409635297    0.7156524370
     C     1.6171960039    1.9363246858    1.2238059315
     O    -2.0827594146    0.1695527983   -0.4020017982
     N    -2.9218251636   -2.0731137496    0.0500552081
     C    -2.5425107826   -0.9856368077   -0.2342507992
     O    -0.5300149322    2.5434781899   -0.4395667762
     C    -0.5037364472    2.4609813305   -1.8317953457
     C     0.1969089854    3.5267218545   -2.3586919885
     C     0.6260554253    4.3145559291   -1.2836500766
     C     0.1844329320    3.6925553418   -0.1048730511
     H    -1.0314646026    1.6192851448   -2.2589454449
     H     0.3569644516    3.7090758001   -3.4142969230
     H     0.0293836414    4.0835550513    0.8905750197
     H     1.1909235605    5.2385459608   -1.3156882263
     O    -1.1015213773   -1.0142030069    2.1312039694
     C    -2.2820387781   -1.7413769237    2.2688416706
     C    -1.9646812263   -3.0553822281    2.6488392788
     C    -0.5692230050   -3.1444884795    2.7248168095
     C    -0.0625198539   -1.8996200708    2.4111940560
     H    -3.1926834195   -1.1687510206    2.3710950386
     H    -2.6952577599   -3.8315842130    2.8429344243
     H     0.9329328168   -1.4802559516    2.3571636861
     H     0.0216848825   -4.0113014316    2.9942179623
