52
-1.7053528232886665e+03 frame 183   xyz file generated by TeraChem
    Fe    -0.8579099985   -0.1971522043    0.9946988023
     N    -0.3033575957    1.0897147376    2.2791234344
     C     0.0575760372    1.8883096186    3.0762842453
     S     0.5507369123    2.9787534522    4.1650837748
     C    -1.4025005734   -1.5239464037   -0.3262263126
     N    -1.7390577501   -2.3158249555   -1.1038605472
     C    -3.3854042943   -2.7834334760   -2.8723222613
     C    -4.6786635775   -2.9093881055   -2.3508341284
     C    -5.7764514052   -2.4626819393   -3.0901071888
     C    -5.5848770889   -1.8942665892   -4.3521072512
     C    -4.2968248406   -1.7720079311   -4.8762052100
     C    -3.1958842540   -2.2134290200   -4.1366885130
     H    -4.8346888133   -3.3732327053   -1.3795168137
     H    -6.7786804216   -2.5735362125   -2.6879248984
     H    -4.1471177807   -1.3472622504   -5.8640354332
     H    -2.1957273496   -2.1340502659   -4.5562181723
     H    -6.4403762534   -1.5605239723   -4.9312201990
     C    -2.1966006582   -3.2887756801   -2.0832227158
     H    -1.3357109375   -3.4975255322   -2.7256321644
     H    -2.4297587885   -4.1975493188   -1.5195209510
     C    -0.8030996214    1.2046656655   -0.4196391014
     N    -0.7649957804    2.0379918504   -1.2241070558
     C    -0.4833024614    4.4594945081   -1.5939983266
     C    -1.5719567940    5.2089687943   -1.1167554819
     C    -1.3657769125    6.4793842441   -0.5687013937
     C    -0.0765974255    7.0050779946   -0.4981112157
     C     1.0100299633    6.2611261936   -0.9745992241
     C     0.8068425694    4.9874475494   -1.5214662725
     H    -2.5814535772    4.8109166870   -1.1879524508
     H    -2.2136691893    7.0564723350   -0.2135342905
     H     2.0129159532    6.6746761853   -0.9340160743
     H     1.6543974016    4.4244934045   -1.9041760437
     H     0.0857752721    7.9954910069   -0.0845224795
     C    -0.7166648340    3.0986596861   -2.2153077432
     H     0.0835359449    2.8233565249   -2.9093631401
     H    -1.6673365171    3.0487296481   -2.7556822285
     C    -0.7885318157   -1.6105810685    2.3989102487
     N    -0.7383909683   -2.4135490899    3.2331666581
     C    -0.0445952337   -2.8458958482    5.5599638371
     C     1.3517210565   -2.8468066743    5.7181703399
     C     1.9271811622   -2.3612971284    6.8975782899
     C     1.1131806038   -1.8770385006    7.9203616357
     C    -0.2786959887   -1.8767564374    7.7663685368
     C    -0.8575224823   -2.3600395870    6.5852898274
     H     1.9899325988   -3.2416704709    4.9312129398
     H     3.0059530284   -2.3773668406    7.0162160027
     H    -0.9153879132   -1.5144173484    8.5675036652
     H    -1.9396811028   -2.3726426715    6.4827002670
     H     1.5554135101   -1.5111264125    8.8417052788
     C    -0.6649505589   -3.4015624522    4.2956482113
     H    -1.6909867985   -3.7448876451    4.4599835365
     H    -0.0898028003   -4.2384157533    3.8860438193
