11
-1.2729847731902828e+03 frame 51   xyz file generated by TeraChem
    Fe    -0.1307874210    0.1715092382   -0.7021224539
     C     2.5648967189    0.4687008702    0.5681192471
     O     1.9966830434    0.4992757281   -0.5146748235
     H     2.0538032793    0.1009300698    1.4695396288
     H     3.6107028442    0.8031224403    0.6440885175
     C    -0.3840620586   -2.4414169480   -2.2220764215
     O    -0.1341024157   -1.2501296082   -2.3445931266
     H    -0.5607302915   -2.8848254645   -1.2315101103
     H    -0.4304752872   -3.0795695287   -3.1179433932
    Cl    -1.1824745319    2.1059680398   -0.9860097828
    Cl    -0.1856363790   -1.4471902534    0.9666528248
