13
-8.5840005492662021e+02 frame 41   xyz file generated by TeraChem
    Mn     0.1907732788   -0.2023037285   -0.2191538876
     C    -1.8653215068   -1.8453844763   -0.9554188674
     O    -1.1086132901   -0.8442695674   -1.3950751051
     C    -1.4734144731   -2.2468517203    0.4999608499
     O    -2.0298424815   -3.1236326733    1.1216268243
     O    -0.4657187319   -1.5025358303    0.9468795823
     O    -2.7461548557   -2.3897890423   -1.5819447845
     C     2.4652721338    1.2140486746    0.2727596814
     O     1.8462412492    0.0829433266    0.6016858959
     C     1.6151088621    2.0648582636   -0.7234846745
     O     1.9676046161    3.1474683488   -1.1346016816
     O     0.4781441058    1.4519728520   -1.0420595397
     O     3.5514770841    1.5622567759    0.6780432144
