15
-1.2971989256947834e+03 frame 70   xyz file generated by TeraChem
    Cr    -0.4148175757    0.8075514959    0.2410917307
     S     1.8587850203    1.0312409280    0.5529225868
     C     2.1263780954   -0.5935315317    0.9179754885
     N     2.2456946125   -1.7289420157    1.1753690632
     S    -1.2704802455   -0.2132050447   -1.6544909482
     C    -1.0105809394   -1.8150563459   -1.2048453944
     N    -0.8209401534   -2.9096690152   -0.8361810084
     C    -0.1484623896    3.2663436911   -1.5400983432
     O    -0.5977386846    2.6212750928   -0.5919044413
     H    -0.5014248608    4.2920485412   -1.6997945867
     H     0.5954937236    2.8365451760   -2.2240835748
     C    -0.7635153100   -1.6849014416    1.9876359697
     O    -0.9384436129   -0.5224892528    1.6051912304
     H    -1.3425046918   -2.0389282758    2.8485072197
     H    -0.0494544708   -2.3522221266    1.4926016150
