31
-2.3790572917658037e+03 frame 69   xyz file generated by TeraChem
    Mn    -0.6202558714    0.6555344907    0.5782580347
     N     0.9067523000    1.5622885673    1.3467782705
     C     1.8673621300    2.1429732112    1.7468015824
     S     3.1636845576    2.9278470866    2.3093108781
     N    -1.8057168725   -0.4269746729   -0.5004405216
     C    -2.4860020364   -1.1380652346   -1.1730749588
     S    -3.4201809033   -2.0908267723   -2.0838333037
     C    -1.8539134367    4.7220823225   -1.8599617135
     C    -1.1834654353    4.7764752429   -0.6306613467
     C    -0.8386410293    3.5940496325    0.0060515872
     N    -1.1307936503    2.3718730871   -0.4901122588
     C    -1.7845598642    2.3236910582   -1.6721718275
     C    -2.1515999539    3.4552606276   -2.3825942234
     S    -2.3375248465    6.1531219329   -2.7792993704
     H    -0.9178658071    5.7213140409   -0.1680074088
     H    -0.2958866749    3.6091761126    0.9426721349
     H    -2.0136981866    1.3333411550   -2.0421784926
     H    -2.6677571944    3.3426435218   -3.3303692129
     H    -1.8517212112    7.0682129483   -1.9160436368
     C    -0.4293773440   -2.8588806756    3.9941093114
     C     0.6386168345   -1.9686049621    3.8210844607
     C     0.5549536697   -0.9890596664    2.8430500983
     N    -0.5102593739   -0.8488389512    2.0244605962
     C    -1.5338632364   -1.7178372550    2.1873945165
     C    -1.5389260588   -2.7153281700    3.1484536151
     S    -0.4517479392   -4.1433240973    5.2091855684
     H     1.5304504327   -2.0238000838    4.4366667017
     H     1.3590976033   -0.2808791120    2.6947463450
     H    -2.3645609130   -1.6014411578    1.5038395669
     H    -2.3967716128   -3.3751933325    3.2255655564
     H     0.7630905026   -3.8862769437    5.7353583159
