65
-2.0248513039885629e+03 frame 58   xyz file generated by TeraChem
    Fe     0.1726936593   -0.1833915756   -0.1969014040
     N    -0.9953577251   -1.1494460184   -1.4969169934
     N    -0.4349485354   -1.6409708462    1.0135014288
     C    -1.1415578582   -0.8805262589   -2.8044825791
     H    -0.6571016261    0.0149210982   -3.1769731183
     C    -1.8520738815   -1.7123742288   -3.6704427471
     H    -1.9167328137   -1.4475380602   -4.7208852006
     C    -2.4495268373   -2.8730940572   -3.1757071498
     C    -2.2968119710   -3.1485268245   -1.8069635630
     H    -2.7380502557   -4.0425459927   -1.3888378053
     C    -1.8816551948   -3.5557764792    1.1722228141
     H    -2.5466561826   -4.2595241895    0.6919227217
     C    -1.6435081647   -3.6590576760    2.5527649285
     C    -0.7871803536   -2.7197321370    3.1315838316
     H    -0.5738183671   -2.7304143873    4.1955930308
     C    -0.2007922649   -1.7380142642    2.3329803282
     H     0.4589996089   -0.9948649612    2.7673630933
     C    -1.5552897324   -2.2911015044   -0.9965593867
     C    -1.2940671342   -2.5307933814    0.4331811152
     C    -2.3045364490   -4.7340545854    3.3817810679
     C    -3.2085814393   -3.8162299800   -4.0772931441
     C    -2.6827499733   -5.2634100821   -3.9854715108
     H    -4.2710647880   -3.8417314069   -3.7927670395
     H    -3.1678603461   -3.4759734867   -5.1177109700
     C    -3.8323512009   -4.7914218221    3.1775329796
     H    -2.0799872556   -4.5944660330    4.4447637742
     H    -1.9096712772   -5.7224768136    3.1023250537
     O    -4.3693363399   -4.2268592515    2.2433523953
     O    -4.5414409190   -5.5098856932    4.0324967411
     H    -4.0098467972   -5.9156700992    4.7418171430
     O    -1.9290496185   -5.6067899266   -3.0945952469
     O    -3.1024251148   -6.1312942335   -4.8910417505
     H    -3.7013817317   -5.7464151268   -5.5571608508
     N     1.9465383577    0.3517035079    0.5323346053
     N     0.2150236562    1.6720813672   -0.9076828121
     C     2.8164037793   -0.4401780105    1.1803050599
     H     2.4758674435   -1.4381480743    1.4340378032
     C     4.1122670138   -0.0320639439    1.4988276143
     H     4.7749112182   -0.7268434014    2.0046739348
     C     4.5374612316    1.2501615443    1.1463423464
     C     3.6199956603    2.0785305729    0.4785839630
     H     3.9128069718    3.0768103661    0.1847923109
     C     1.4787051234    3.7185237190   -0.9262166409
     H     2.3849046218    4.2519566739   -0.6762942859
     C     0.4256378431    4.3974857978   -1.5610579153
     C    -0.7286720535    3.6675563141   -1.8543467811
     H    -1.5858009391    4.1343317234   -2.3289247231
     C    -0.7920991453    2.3140372765   -1.5228106938
     H    -1.6851564189    1.7369489828   -1.7369994236
     C     2.3477954464    1.6053021224    0.1656706920
     C     1.3410658256    2.3747140391   -0.5848983531
     C     0.5317995099    5.8651226974   -1.9000509157
     C     5.9392908098    1.7269151337    1.4415923879
     C     6.6535477803    2.2565276945    0.1807635786
     H     5.9148506934    2.5523454652    2.1686687164
     H     6.5352210832    0.9263781973    1.8933358601
     C     0.9914659961    6.7272391691   -0.7061832328
     H    -0.4243131418    6.2437443455   -2.2775360955
     H     1.2690946097    6.0136988900   -2.7035241076
     O     1.4701022752    6.2271083150    0.2937055936
     O     0.8802140545    8.0407600571   -0.8194069804
     H     0.4827210593    8.3306534867   -1.6609971526
     O     6.0383642959    2.4860560956   -0.8435018440
     O     7.9542073738    2.4833369721    0.2559131680
     H     8.3425042370    2.2630799841    1.1226787387
