31
-2.3611739168667500e+03 frame 71   xyz file generated by TeraChem
    Cr    -0.1796632992   -0.4500895291   -0.3437644016
     S     2.0785891666   -0.1630526256   -0.6642202597
     C     2.2362170438    1.2391243443    0.2735116274
     N     2.2952615651    2.2168837448    0.9122585401
     S    -0.2263388432   -2.1798266677   -2.0876265425
     C    -1.6603610355   -1.8699389798   -1.3004555954
     N    -2.4542901147   -1.4108804708   -0.5497286255
     C    -2.2392607592    3.8113222930   -1.1866089118
     C    -1.0386443577    3.4328976778   -1.8152491842
     C    -0.4648678771    2.2142510816   -1.5115619237
     N    -1.0118616776    1.3472228611   -0.6207158491
     C    -2.1761864317    1.7027415874   -0.0168343270
     C    -2.8051427768    2.9041265615   -0.2677810970
     S    -3.0677358335    5.3261225750   -1.4778476853
     H    -0.5456128740    4.0767704719   -2.5353864288
     H     0.4616695871    1.9068712220   -1.9820261165
     H    -2.6052574594    0.9830820466    0.6688865730
     H    -3.7346357912    3.1308417229    0.2436658034
     H    -2.1913321751    5.8218054193   -2.3751113891
     C    -0.5699578197   -0.9613433155    4.4226458069
     C    -0.1299143508    0.2628687670    3.8861256944
     C    -0.0637233466    0.4254206042    2.5155278248
     N    -0.4145749563   -0.5553174658    1.6477683733
     C    -0.8442912791   -1.7389197278    2.1583344483
     C    -0.9326671057   -1.9759952938    3.5141412891
     S    -0.6934601844   -1.2968000982    6.1377251327
     H     0.1718063842    1.0868771074    4.5236800880
     H     0.3023263004    1.3501614187    2.0854626528
     H    -1.1372146113   -2.5029377248    1.4466714209
     H    -1.2823215268   -2.9426663636    3.8606934745
     H    -0.2471274255   -0.0994494700    6.5690277575
