13
-8.7779702486215604e+02 frame 57   xyz file generated by TeraChem
    Fe    -0.1680983871   -0.0540633907    0.3908950082
     C    -1.4676450028   -1.7881827562   -1.2540635251
     O    -1.1181832691   -0.5304697885   -1.1704381311
     C    -1.0345967277   -2.6353611665   -0.0064941871
     O    -1.3093267307   -3.8348243799    0.0710744815
     O    -0.4114830306   -1.9310872065    0.8849867051
     O    -2.0941991793   -2.2851006735   -2.1876815489
     C     2.2155794997    1.2491744937    0.0713089254
     O     1.7156783412    0.0498603205    0.2114452872
     C     1.1227633358    2.3696242518    0.0694804263
     O     1.4266444033    3.5607612641   -0.0280559281
     O    -0.0722463345    1.8891894487    0.2059287717
     O     3.4143412844    1.5066547854   -0.0234054853
