9
-4.7540256834816807e+02 frame 40   xyz file generated by TeraChem
    Mn    -0.0058271489    0.0036197199    0.0077271886
     C     2.1215277498    0.3554855988   -0.2763555422
     N     3.2688605910    0.5447067524   -0.4327023703
     C    -0.6835416389   -1.4493442701   -1.4579050591
     N    -1.0485658020   -2.2342495630   -2.2499178467
     C    -1.0797597020    1.8730910549   -0.2650148485
     N    -1.6577442315    2.8832327064   -0.4136727092
     C    -0.3615145915   -0.7768034195    2.0052212306
     N    -0.5535483027   -1.1997979419    3.0825952517
