21
-1.5693785966014236e+03 frame 120   xyz file generated by TeraChem
    Fe     0.1891228251   -0.2305872096   -0.2429728615
     C     4.8646444453    0.2657182776    0.6699367879
     C     4.3733686260    0.3863143313   -0.6337658771
     C     3.0110461868    0.2526596751   -0.8520358986
     N     2.1374476606    0.0068232964    0.1616949147
     C     2.6210852074   -0.1077630747    1.4270988780
     C     3.9708490372    0.0146281509    1.7158444027
     H     5.9276406347    0.3660075078    0.8683514860
     H     5.0353026184    0.5793653639   -1.4712585465
     H     2.5968037069    0.3375876237   -1.8532043563
     H     1.8957225220   -0.3011478669    2.2114623096
     H     4.3126554498   -0.0867325980    2.7403315952
     S    -0.1484959012   -1.3597220021   -2.5042105856
     H    -0.1166719211   -2.6807570327   -2.2198137004
     H    -1.4785317414   -1.3164597238   -2.7380359897
     S    -0.9835407837    2.0001210427   -0.6098581810
     H    -0.2203068625    2.6075393131   -1.5450099099
     H    -0.5319027962    2.7601474858    0.4122571565
     S    -1.3479594549   -1.6270572468    1.2651499849
     H    -1.1650606128   -1.0898798345    2.4923408171
     H    -2.5619060570   -1.0610962434    1.0804222272
