16
-2.1313022716658102e+03 frame 28   xyz file generated by TeraChem
    Mn    -0.0891890884   -0.0821094379   -0.0146358574
     C     4.9690805800   -0.0244933185    0.0265443719
     C     4.2487719077    0.8261164512   -0.8193179751
     C     2.8585653532    0.7796035296   -0.7887142451
     N     2.1774736128   -0.0514009373    0.0133864667
     C     2.8671987072   -0.8566101460    0.8356777074
     C     4.2570650173   -0.8804037364    0.8752211725
     S     6.7497347778   -0.0632747894    0.0810524532
     H     4.7493597380    1.5193753638   -1.4883128771
     H     2.2515796838    1.4386923821   -1.4039018118
     H     2.2662776321   -1.4797031469    1.4925642211
     H     4.7678596047   -1.5501397148    1.5601000954
     H     6.9571559628    0.8898552656   -0.8505885049
    Cl    -0.7187339363   -1.6891638348   -1.6230146003
    Cl    -0.4053067180    2.2374147250   -0.5320405274
    Cl    -0.4076103175   -0.5940335054    2.3030072142
