9
-9.0765060036674220e+02 frame 40   xyz file generated by TeraChem
    Cr    -0.2915041384    0.3833207674    0.3962339207
     I     2.2410194106    0.3701706582    0.3714635162
     I    -1.4165832808   -0.9751341543   -1.3933163408
     S    -0.6670383715    2.8039037980   -0.1592870779
     H     0.1845195113    2.9194820808   -1.2011890076
     H    -1.7719559238    2.7368112135   -0.9348426077
     S    -0.6358360910   -0.8596444162    2.5517824669
     H     0.0890660324   -1.9650191015    2.2744934117
     H    -1.8273349842   -1.4612203787    2.3370449377
