25
-4.6695023696064538e+02 frame 41   xyz file generated by TeraChem
    Cr     0.1714511361   -0.1736502491   -0.1667541976
     N    -1.3017024513   -1.0102453078   -1.4894991524
     N    -0.6644471295   -1.6472330375    1.1560170754
     C    -1.9670974159   -2.1446383396    0.5832221685
     C    -1.7986675635   -2.3130374531   -0.9166583369
     H    -2.7384316417   -2.6170591202   -1.3868774933
     H    -1.0472048386   -3.0761312869   -1.1418825178
     H    -2.7303861880   -1.3933561789    0.8083961566
     H    -2.2708414995   -3.0844527464    1.0535148101
     H    -2.0970785279   -0.3743099892   -1.6097025116
     H    -0.9615948350   -1.1740371935   -2.4414054680
     H    -0.0282248059   -2.4423803068    1.2762119680
     H    -0.8283227424   -1.3072136497    2.1079426317
     N     1.7340824807    0.5681990243    1.1056239601
     N     0.9111229702    1.3907051740   -1.4383322526
     C     1.7942083800    2.3051290766   -0.6283253329
     C     2.6472529359    1.4532333030    0.2963667218
     H     3.2672542435    2.0775800653    0.9461855404
     H     3.3120356622    0.8004600360   -0.2779672167
     H     1.1400561659    2.9686020038   -0.0540422503
     H     2.4177434727    2.9264603073   -1.2776545935
     H     1.3479908397    1.1142263591    1.8835947220
     H     2.2928279432   -0.1580558422    1.5631682262
     H     1.4581276838    1.0061312279   -2.2163705767
     H     0.1839924577    1.9483585910   -1.8958234481
