25
-5.0404981212826675e+02 frame 42   xyz file generated by TeraChem
    Fe     0.0286178327   -0.0508177536   -0.0738631705
     N    -0.9450541184   -1.2190182980   -1.5865503912
     N    -0.8859425030   -1.4716341825    1.2382257206
     C    -1.9357073036   -2.2096044250    0.4482398996
     C    -1.3897751900   -2.5067166254   -0.9437829967
     H    -2.1464584247   -3.0077928354   -1.5544620487
     H    -0.5168889771   -3.1651987385   -0.8875508786
     H    -2.8204762179   -1.5668548350    0.3947267322
     H    -2.2254854864   -3.1361044598    0.9523018065
     H    -1.7671179330   -0.7319065916   -1.9563073147
     H    -0.3727840119   -1.4273701343   -2.4091183363
     H    -0.2003166707   -2.1462335019    1.5927340439
     H    -1.3101517432   -1.0688271866    2.0783579321
     N     2.1593024348    0.1633302686    0.1154502760
     N     0.0693192402    2.0722802108   -0.2073173896
     C     1.4432176962    2.5283004232    0.2200275162
     C     2.4887115746    1.5640735907   -0.3289309821
     H     3.4889927874    1.8568439468    0.0034081956
     H     2.4854974616    1.5692334273   -1.4237985775
     H     1.4570916363    2.5398674679    1.3146187742
     H     1.6400703484    3.5463478072   -0.1277052804
     H     2.4707862156    0.0406826149    1.0841776664
     H     2.7146003052   -0.5049596451   -0.4253423048
     H    -0.1029344921    2.3896418122   -1.1672044480
     H    -0.6382200061    2.5548609079    0.3540293531
