24
-6.9471391733937321e+02 frame 59   xyz file generated by TeraChem
    Mn    -0.4129514025    0.2195259154   -0.0128578427
     C     2.6480727514    0.8788735307   -0.6919048304
     O     1.6388761853    0.4643236730   -0.1084473884
     H     3.6385853479    0.7224174806   -0.2457117975
     H     2.5774852635    1.4035659641   -1.6540713834
     C    -1.2819587811   -1.7756236178   -2.4178805221
     O    -1.0450869550   -1.1661016858   -1.3687618220
     H    -1.8021635135   -2.7417963839   -2.3838578892
     H    -0.9804098963   -1.3647559467   -3.3908574679
     C    -1.9315726680    3.0475734869   -0.3100524289
     O    -1.4793356387    1.9415999974    0.0083261002
     H    -2.6826539140    3.5340256904    0.3257360087
     H    -1.5942038529    3.5544786390   -1.2240350854
     C    -0.6234356551   -2.0549673115    4.7245619355
     C    -1.7845669436   -1.8116970142    3.9926489137
     C    -1.6976132432   -1.1773564780    2.6879196229
     N    -0.5366005955   -0.7970252187    2.1175587685
     C     0.5809394728   -1.0358284914    2.8337359925
     C     0.5812363938   -1.6638726601    4.1436859035
     H    -0.6566317680   -2.5278119877    5.7034748004
     H    -2.7695611417   -2.0833646098    4.3687376152
     H    -2.6168890168   -0.9938930135    2.1355320617
     H     1.5261806223   -0.7338157385    2.3885413195
     H     1.5366944091   -1.8147396629    4.6432245515
