33
-9.1657296683976426e+02 frame 122   xyz file generated by TeraChem
    Fe     0.6062031521    0.3660448748    0.1490079360
     N     1.7851275810    1.1872502316   -1.3013508845
     H     2.6892328335    1.5166139282   -0.9414238999
     H     2.0199135774    0.5411965271   -2.0641803426
     H     1.3669956071    2.0029648188   -1.7572560794
     N     1.9666311593   -1.1417101867    0.3891769358
     H     1.7941690265   -1.7334383504    1.2067748399
     H     1.9846257343   -1.7883061290   -0.4089966818
     H     2.9340986838   -0.8143521151    0.4904067516
     C    -2.6949396697    3.8291611481   -0.6468871235
     C    -1.7747180403    3.9459023179    0.4247482957
     C    -0.8582416805    2.9235757634    0.6220456326
     N    -0.8003133113    1.8242049989   -0.1757105268
     C    -1.6830916592    1.7101622517   -1.2002948432
     C    -2.6422049304    2.6776975844   -1.4741782275
     C    -3.6510457043    4.8440513564   -0.8911022128
     H    -1.7766094323    4.8166201696    1.0734317978
     H    -0.1354751899    2.9904100143    1.4292500951
     H    -1.6094014518    0.8273162156   -1.8288602902
     H    -3.3246914304    2.5552212666   -2.3099656826
     N    -4.4493195240    5.6870303591   -1.0933411607
     C    -1.9897163307   -1.5099230408    3.7871509759
     C    -0.8776616712   -0.6695710440    4.0512766659
     C    -0.1698984159   -0.1516637622    2.9736984345
     N    -0.5010753246   -0.4176133129    1.6842161974
     C    -1.5731298376   -1.2149436664    1.4327054735
     C    -2.3372606862   -1.7842444798    2.4408313678
     C    -2.7366819393   -2.0666530848    4.8530443610
     H    -0.5751091270   -0.4425341768    5.0691938855
     H     0.6979546411    0.4780289284    3.1475929603
     H    -1.8091683915   -1.4178701611    0.3927682462
     H    -3.1747941662   -2.4313764599    2.1986645665
     N    -3.3591817277   -2.5277574839    5.7410037976
