15
-4.1158835151788503e+02 frame 76   xyz file generated by TeraChem
    Fe    -0.5884460324   -0.2300817909   -0.3435806094
     C     2.4028805198    0.2718537457    0.3059643110
     N     1.2932962716    0.0663061150    0.0481978264
     C     3.7919055202    0.5444388913    0.6407987698
     H     3.8732567238    0.7866811671    1.7055138977
     H     4.1508976190    1.3950191092    0.0517576134
     H     4.4099478014   -0.3318753573    0.4211746085
     C    -0.0663777892   -2.3812115074   -2.5210059636
     N    -0.2400545792   -1.5798542541   -1.7040631007
     C     0.1329840181   -3.3912783892   -3.5484649339
     H     1.2024354259   -3.5519520987   -3.7166543840
     H    -0.3348244340   -3.0629345261   -4.4825294261
     H    -0.3275201162   -4.3324942397   -3.2299621552
     I    -3.1512098786   -0.1000606055   -0.9033842973
     I    -1.4190049318    1.3141911186    1.6118940658
