11
-1.6966046696656010e+03 frame 43   xyz file generated by TeraChem
    Fe     0.0464935954    0.1930043264   -0.5056983306
     S     2.4962833425   -0.1702751341   -0.7764193943
     C     3.2614646058    0.9544598773    0.2285679281
     N     3.8527886337    1.7052300175    0.9119509098
     S    -0.7651563193   -1.5064410020   -2.2087335041
     C    -0.1179599904   -3.0248057237   -1.8536611945
     N     0.2876964487   -4.1103416881   -1.6573480819
     S    -0.3414291656    2.4086914665   -1.6801094788
     C    -1.8796256812    2.9224445938   -1.2089960166
     N    -2.9407643338    3.3378561934   -0.9228252719
     F    -0.7219373775   -0.0754376004    1.0789290531
