16
-9.5740077898515108e+02 frame 65   xyz file generated by TeraChem
    Fe    -0.0226091137    0.1388587487    0.2161718121
     S     2.4516420850    0.6157723632    0.6884712310
     C     3.0297675172   -0.4935107749   -0.3893723093
     N     3.4194938717   -1.2952796047   -1.1675049933
     C     0.2260747048   -2.1342772646   -1.9563822360
     O    -0.1253814923   -1.2849126909   -1.1326850120
     H    -0.5391307779   -2.6957609685   -2.5070850177
     H     1.2905957876   -2.3314314679   -2.1410013654
     C    -1.3855730626    2.7890649434   -0.8862166634
     O    -0.7313845583    1.7697994824   -0.6605227838
     H    -2.0537233509    3.2129601162   -0.1249373519
     H    -1.2995789144    3.2837110354   -1.8620419747
     C    -1.4769116224   -0.3838318777    3.0115589042
     O    -0.8411958484   -0.2424538014    1.9653297749
     H    -2.2178975651    0.3646210969    3.3218035902
     H    -1.3014965667   -1.2640001299    3.6434874759
