31
-1.3043153140996860e+03 frame 47   xyz file generated by TeraChem
    Fe     0.4551582289   -0.1949976419   -0.2279757624
     N     2.1284870489    0.5175681558   -0.0515512632
     C     3.0837148608    1.1951597018    0.2458436453
     S     4.3694780061    2.0475931361    0.6046191956
     O    -0.9504536242   -1.5327738560   -0.9498619410
     C    -0.8549891262   -2.8849671109   -0.5988051439
     C    -1.3211865375   -3.6463290496   -1.6115679703
     C    -1.7283072835   -2.7526648798   -2.6654600067
     C    -1.4871007760   -1.4938304494   -2.2416885871
     H    -0.4561687844   -3.0842895725    0.3838611453
     H    -1.3807493313   -4.7256616339   -1.6176237238
     H    -1.6315864514   -0.5092342478   -2.6560778949
     H    -2.1556560976   -3.0282582372   -3.6193433791
     O    -0.6281236915    1.3652612676   -0.7920759079
     C    -2.0007420811    1.5959033785   -0.6710606007
     C    -2.2942586985    2.7992472326   -1.2082805596
     C    -1.0620141063    3.3673593650   -1.6927472849
     C    -0.0758417363    2.4857445465   -1.4255823741
     H    -2.5635210213    0.8197548030   -0.1805136763
     H    -3.2768820988    3.2473273768   -1.2556024689
     H     0.9908877691    2.4548044069   -1.5738598497
     H    -0.9367266189    4.3254296957   -2.1771680181
     O    -0.2452517673   -0.4299693383    1.6348002832
     C     0.4104867791    0.1306386508    2.7391632917
     C    -0.4176764480    0.1107111855    3.8033024847
     C    -1.6611313217   -0.4756452328    3.3711086168
     C    -1.5306494886   -0.7836322731    2.0636329650
     H     1.4195770327    0.4570179539    2.5516474461
     H    -0.1787823941    0.4654764158    4.7959203980
     H    -2.1618733301   -1.2500366871    1.3264533200
     H    -2.5395247906   -0.6503789340    3.9766559454
