9
-2.0477487054338253e+03 frame 34   xyz file generated by TeraChem
    Co    -0.1081332884   -0.0259063383   -0.0375100819
     N     1.6856429774   -0.3900229797    0.3011364604
     C     2.6103675477   -1.0780423445    0.6013409159
     S     3.9146436907   -1.9408473097    0.9991234648
     N    -0.3269408520   -0.8962237682   -1.6654606219
     C    -0.1954602846   -1.0440191610   -2.8399878808
     S    -0.0637897527   -1.3172054716   -4.4246788415
    Cl    -1.0692122155    1.9177522660   -0.4633262526
    Cl    -1.0333319065   -0.4422841749    1.9245184493
