31
-9.8139370441902497e+02 frame 76   xyz file generated by TeraChem
    Fe     0.3848382159    0.2196794645   -0.0078397499
     O     2.2025866786    0.0070783711   -0.2955616159
     N     3.1449922006   -2.2109951735    0.1601700413
     C     2.7175792256   -1.1424096265   -0.0604092718
     O    -0.6273235673   -1.3216065422   -1.1111018309
     C    -0.2445209800   -2.6712153958   -1.0679803346
     C    -0.8195332929   -3.3279697575   -2.0965070811
     C    -1.6013292343   -2.3706129439   -2.8379224267
     C    -1.4584644890   -1.1759575880   -2.2273511537
     H     0.4561696321   -2.9346999013   -0.2898190376
     H    -0.7006971071   -4.3790337016   -2.3189087676
     H    -1.8375689738   -0.1820135159   -2.4031336783
     H    -2.1927581942   -2.5639208923   -3.7219501600
     O    -0.6973076270    1.8854729589   -0.6265399395
     C    -2.0608152897    2.2005893360   -0.5466937227
     C    -2.2716919177    3.3989327802   -1.1288049295
     C    -0.9975474450    3.8809706748   -1.6033320774
     C    -0.0706603350    2.9546162665   -1.2864311719
     H    -2.6781158430    1.4752410872   -0.0403675132
     H    -3.2249224647    3.9017135683   -1.2143825227
     H     0.9951068754    2.8558719158   -1.4303233750
     H    -0.8101296963    4.8131031934   -2.1177056397
     O    -0.3621283512   -0.2156131690    1.9011554964
     C    -1.5273219632   -0.9364128839    2.1940763895
     C    -1.7839827307   -0.8439549050    3.5152886330
     C    -0.7444089593   -0.0341923851    4.1018119290
     C     0.0934618998    0.3278615333    3.1089061263
     H    -1.9793568703   -1.4461642526    1.3580104210
     H    -2.6122043072   -1.3062394418    4.0339924789
     H     1.0093889932    0.8956094398    3.0498320535
     H    -0.6406957795    0.2288744416    5.1451058986
