15
-1.3311294254996992e+03 frame 45   xyz file generated by TeraChem
    Co     0.3617632433   -0.3131494827    0.1614649067
     C     3.5740877600   -0.6769403288   -0.0256567736
     N     2.4220652108   -0.6085901778   -0.0810794758
     C     5.0263446818   -0.7578020724    0.0516503153
     H     5.3273857670   -1.0025384499    1.0749095422
     H     5.4661401362    0.2036703404   -0.2304558622
     H     5.3956578289   -1.5343470454   -0.6249385534
     C    -1.3146305919   -1.4576575682   -2.3610076274
     N    -0.5585991099   -1.1100801247   -1.5593845697
     C    -2.2778683498   -1.8925132161   -3.3633591604
     H    -1.7778660308   -2.4867746420   -4.1340413779
     H    -2.7451595257   -1.0199082417   -3.8298753260
     H    -3.0527021712   -2.5019603872   -2.8881439743
    Cl     0.0266288785    1.8929024083   -0.0890035338
    Cl    -0.2765207247   -1.7671893263    1.7517182925
