9
-2.0260914677023741e+03 frame 42   xyz file generated by TeraChem
    Fe     0.4420495796   -0.6162878048   -0.5229962858
     S     2.6344670445   -0.1724089951   -0.1665916994
     C     2.6181347508    1.3291155184    0.6173405277
     N     2.6884114773    2.3531172290    1.1785048899
     S     1.0596634857   -2.2436149729   -1.9864396805
     C    -0.4147108463   -2.9802809279   -2.3745392253
     N    -1.3942088672   -3.5320383497   -2.6986648775
    Cl    -0.4278525915    1.1931063906   -1.3898129410
    Cl    -1.0373820930   -1.2757031188    0.9586358019
