19
-1.3708414946210805e+03 frame 397   xyz file generated by TeraChem
    Fe     0.6615335693   -0.1056310533   -0.1445750366
     S     2.9209019563    0.2967495193    0.2273448392
     C     2.3959695890    1.4856133770    1.3058711557
     N     1.9706841975    2.2966557286    2.0374346488
     S     0.6427730027   -1.7477417983   -1.7969811496
     C    -1.0290485251   -1.8133706059   -1.5743592046
     N    -2.1838322399   -1.8228176544   -1.3740627402
     C    -0.8260155084    2.5430514832   -1.1394074563
     N    -0.3127351779    1.5673792453   -0.7841307100
     C    -1.4675430318    3.7665800849   -1.5855360806
     H    -1.0765600016    4.6155315942   -1.0147349591
     H    -2.5493719597    3.6919216923   -1.4323777058
     H    -1.2638976374    3.9202025699   -2.6506491501
     C    -0.7569708409   -1.2624482823    2.4768722483
     N    -0.2355012095   -0.8195738718    1.5423038283
     C    -1.4105294515   -1.8188371339    3.6477340108
     H    -2.4463355259   -2.0764047986    3.4024225583
     H    -1.3987065688   -1.0845985582    4.4601379128
     H    -0.8800477980   -2.7216338084    3.9690838789
