41
-1.0761861639361045e+03 frame 48   xyz file generated by TeraChem
    Cr     0.2151319363   -0.2163993674   -0.2445777750
     N    -0.6095246617   -1.4803814716   -1.5131943917
     N    -1.0476968918   -1.0422354704    1.0245583127
     C    -0.2829707452   -1.6011610338   -2.8232635365
     H     0.5003141849   -0.9477694128   -3.1975969692
     C    -0.9196963366   -2.5188367086   -3.6486374322
     H    -0.6361333161   -2.5931675947   -4.6934798301
     C    -1.9190717040   -3.3288358023   -3.1018973921
     H    -2.4364730947   -4.0564497104   -3.7210900631
     C    -2.2564584242   -3.2022387887   -1.7475973864
     H    -3.0320458136   -3.8316860522   -1.3254226667
     C    -2.7681982221   -2.6905246500    1.2594043172
     H    -3.3970316841   -3.4667124794    0.8374176653
     C    -2.8949009523   -2.3530226390    2.6136720563
     H    -3.6220000387   -2.8709251963    3.2330495475
     C    -2.0856782531   -1.3528893638    3.1601665230
     H    -2.1601328585   -1.0692323710    4.2049753731
     C    -1.1686055709   -0.7155627352    2.3345771804
     H    -0.5157493477    0.0682545849    2.7087328401
     C    -1.5912908359   -2.2694014838   -0.9608943611
     C    -1.8360069704   -2.0246950069    0.4724982103
     N     2.1628917977   -0.0666523174    0.0327143640
     N     0.3633815678    1.7312769971   -0.5228251039
     C     2.9909316668   -1.0998517384    0.3257337671
     H     2.5341288110   -2.0817246530    0.4071388528
     C     4.3537472763   -0.9103013117    0.5116320583
     H     4.9902187501   -1.7576839402    0.7449242847
     C     4.8710195646    0.3827813605    0.3918768380
     H     5.9329608232    0.5648489771    0.5318311483
     C     4.0153479064    1.4509367160    0.0900982253
     H     4.4183643247    2.4534731392   -0.0019937581
     C     1.8797666419    3.5846106430   -0.5831391219
     H     2.8821340168    3.9883492292   -0.4923489507
     C     0.8107883489    4.4393763740   -0.8846012092
     H     0.9920452675    5.5013186228   -1.0256039995
     C    -0.4820974055    3.9212106133   -1.0026595610
     H    -1.3300949425    4.5569890484   -1.2356086380
     C    -0.6706273592    2.5584298201   -0.8155012020
     H    -1.6523181187    2.1009869981   -0.8955587119
     C     2.6580260333    1.2101283104   -0.0867253563
     C     1.6399789035    2.2272879988   -0.4049564275
