9
-4.5778267760920011e+02 frame 34   xyz file generated by TeraChem
    Cr    -0.2891189102   -0.2324080369    0.0601135758
     C     1.6312588436   -0.5306793313    0.2969593666
     N     2.7704488694   -0.7490150581    0.4504568863
     C    -0.5971629078   -1.2010584839   -1.7015879690
     N    -0.8763417185   -1.8270221844   -2.6513292111
     C    -0.3426639776    1.6114402130   -0.6010887764
     N    -0.4203465317    2.7106767183   -0.9942663779
     C    -0.7548935865    0.0701799136    2.0154964338
     N    -1.1212922345    0.1478375669    3.1252099291
