25
-8.1959892597419116e+02 frame 33   xyz file generated by TeraChem
    Fe     0.1671824762   -0.4110612817    0.1609245615
     C     4.9055612587    0.3723394697   -0.2160438540
     C     3.9997536741    1.1994666234   -0.8839140142
     C     2.6423049309    0.9348120136   -0.7710704508
     N     2.1808537127   -0.1055374379   -0.0399363711
     C     3.0542689995   -0.8981199084    0.6226362895
     C     4.4244004549   -0.6905336414    0.5519580792
     H     5.9727761164    0.5598346708   -0.2847565194
     H     4.3353636870    2.0433433732   -1.4765566058
     H     1.8926385951    1.5595819425   -1.2454215524
     H     2.6221231735   -1.6888188788    1.2278344180
     H     5.0963828637   -1.3441178911    1.0972092539
     C    -1.8906166988   -3.0815501814   -3.2824646869
     C    -1.2461010266   -3.7095900117   -2.2139760150
     C    -0.6425834235   -2.9242505838   -1.2424411855
     N    -0.6572195065   -1.5739864482   -1.3098873212
     C    -1.2936605904   -0.9613154820   -2.3352912515
     C    -1.9166388757   -1.6866099605   -3.3412237160
     H    -2.3741361877   -3.6722999536   -4.0545176264
     H    -1.2169578628   -4.7901466508   -2.1271282821
     H    -0.1481495020   -3.3618678863   -0.3808693769
     H    -1.3033602448    0.1232750582   -2.3109654444
     H    -2.4193196069   -1.1639312628   -4.1475993209
     F    -0.5609284177    1.1412487604   -0.1466391180
     F    -0.0439669968   -1.2084632130    1.6872788302
