14
-1.7326996758874977e+03 frame 89   xyz file generated by TeraChem
    Co     1.1973805995    0.2461996710   -0.1029841476
     S     3.2561122082    0.7205354525   -1.1409208436
     C     3.2128510352   -0.6568218989   -0.1898809596
     N     2.8557743596   -1.5391939592    0.5128751169
     S     0.2442149404   -0.6065676059   -2.0870514456
     C    -1.3257775595   -0.9601069030   -1.6295278899
     N    -2.4205327630   -1.2232620113   -1.2958525957
     S     0.2137250414    2.2749528925   -0.4953032385
     C    -1.2969587828    2.0490967559    0.2076788110
     N    -2.3347920746    1.8557778791    0.7169987415
     C    -1.0381041442   -0.6320399847    1.6578381155
     O     0.1116047142   -0.2857881746    1.4034750082
     H    -1.3158241170   -0.7799866902    2.7091408923
     H    -1.7837248472   -0.8126843449    0.8763067042
