14
-1.4355049885104420e+03 frame 90   xyz file generated by TeraChem
    Fe     0.0061310695    0.0160654126    0.1054947087
     C     2.9871315501   -0.6666779455    0.1579188847
     O     1.8891160816   -0.2441939721   -0.2199808122
     H     3.1051744907   -1.1694823028    1.1266205681
     H     3.8605638496   -0.5345502002   -0.4923735792
     S    -0.6386880694   -1.6660540888   -1.5722766196
     H     0.1971154578   -1.3403741834   -2.5839955296
     H    -1.7300566478   -1.1035686686   -2.1401467374
     S     0.3346606172    2.4097240491    0.5394185998
     H     1.0710802415    2.7516743920   -0.5421312083
     H    -0.8082341639    2.9674201009    0.0788035023
     S    -2.0946797066   -0.1970842912    1.3137379646
     H    -2.0812602723   -1.4989509893    1.6830667291
     H    -1.7975777958    0.2760645582    2.5460720210
