11
-5.3820486152410660e+02 frame 60   xyz file generated by TeraChem
    Co    -0.5581474304    0.0341355248   -0.3624379795
     C     1.4092777679   -0.3499451061   -0.0562367298
     N     2.5020522391   -0.5940327812    0.2882953930
     C    -1.3940407602   -1.6411399274   -1.1385322941
     N    -1.9100171949   -2.5910810595   -1.5879890352
     C    -0.7481167850    2.0520460317   -0.2620543244
     N    -0.8922434357    3.2119457341   -0.1963500514
     C    -0.2238002603   -0.5683769378    2.5799109567
     O    -1.0454193906   -0.3040314150    1.7200966153
     H     0.8443815634   -0.6713362334    2.3399716019
     H    -0.5538282211   -0.7082904952    3.6238651355
