14
-9.4863434572720837e+02 frame 48   xyz file generated by TeraChem
    Co     0.1543155382    0.2097331430   -0.6629798616
     C     2.8914323128    0.4671780969    0.4665357806
     O     2.1406159911    0.6042435607   -0.4938619782
     H     2.5324076059    0.0726960807    1.4279236227
     H     3.9492486064    0.7429490605    0.3663383615
     C    -0.2938061644   -2.2466140949   -2.2660167667
     O     0.1031210574   -1.0861503254   -2.2230509240
     H    -0.7104964015   -2.7453193419   -1.3796896062
     H    -0.2333557801   -2.7999210047   -3.2121243202
     C    -1.5879156157    2.6042637683   -0.6418048322
     O    -0.6614340285    1.9916354654   -1.1642094882
     H    -2.1178756143    2.2082253962    0.2360614905
     H    -1.8946793625    3.5715560074   -1.0599382307
    Cl    -0.7556388698   -0.6823299854    1.1050409736
