101
-2.0123677847995575e+03 frame 68   xyz file generated by TeraChem
    Cr     0.0979014162   -0.1650370770    0.1805751940
     C     2.0677413741   -0.0104096990    0.2117862263
     N     3.2385283211    0.0664684708    0.2713955267
     C     4.5955013458    0.1467881112    0.3436751694
     C     5.2211469493    1.4130094860    0.4431996740
     C     6.5966101971    1.4695861773    0.5186835716
     C     7.4022751477    0.2984879988    0.5003734822
     C     8.9194210573    0.4182910776    0.5801326723
     C     9.4124741919    1.2522680127   -0.6369143046
     C     9.2945367281    1.1614289619    1.8937538615
     C     9.6260338879   -0.9495051525    0.5634960438
     C     6.7398817558   -0.9499429304    0.4029694457
     C     5.3631487974   -1.0402664017    0.3236698843
     H     4.6198571063    2.3158996216    0.4602681175
     H     7.0700681399    2.4418632819    0.5942339206
     H     9.1763564151    0.7536556707   -1.5827880836
     H    10.4997229521    1.3620179636   -0.5741710560
     H     8.9793962241    2.2570796383   -0.6578117965
     H     8.9688841579    0.6001587160    2.7756796414
     H     8.8628469305    2.1656478249    1.9436423609
     H    10.3827268888    1.2677693361    1.9417578396
     H     9.3416963630   -1.5713871726    1.4197102891
     H    10.7074219850   -0.7972151834    0.6209677658
     H     9.4272356166   -1.5049919652   -0.3597088413
     H     7.3180354937   -1.8651346232    0.3894075606
     H     4.8697540763   -2.0039227053    0.2504264314
     C    -0.3912923213   -1.5554489278   -1.1168246152
     N    -0.6821306165   -2.3749214997   -1.9060553559
     C    -1.0272308874   -3.3269939561   -2.8174209497
     C    -2.3947987867   -3.6052662909   -3.0543365193
     C    -2.7241895062   -4.5683716834   -3.9843114827
     C    -1.7351099822   -5.2872679636   -4.7088627073
     C    -2.1574126832   -6.3347077710   -5.7310722764
     C    -3.0134557445   -7.4188003903   -5.0161014639
     C    -3.0209565928   -5.6400300086   -6.8233328203
     C    -0.9584353529   -7.0211643182   -6.4112152341
     C    -0.3777744811   -4.9829613484   -4.4416759305
     C    -0.0145964491   -4.0228288254   -3.5157010160
     H    -3.1616639021   -3.0647243663   -2.5095376694
     H    -3.7727567830   -4.7771389268   -4.1631419719
     H    -2.4381309574   -7.9282287619   -4.2362859257
     H    -3.3223002048   -8.1658067711   -5.7537453292
     H    -3.9202571350   -7.0048943374   -4.5646921597
     H    -2.4511181001   -4.8648658621   -7.3459139383
     H    -3.9281709888   -5.1870801729   -6.4118893057
     H    -3.3286927019   -6.3899386244   -7.5586033873
     H    -0.3359297009   -6.3118151936   -6.9680999534
     H    -1.3273322797   -7.7579056346   -7.1302086776
     H    -0.3279175433   -7.5583294775   -5.6937699078
     H     0.4051289819   -5.5104497575   -4.9718592624
     H     1.0294311957   -3.7994276730   -3.3224091329
     C    -0.6287649267    1.4961718081   -0.5122186123
     N    -1.0761414389    2.4925394252   -0.9485526670
     C    -1.5932690401    3.6406171746   -1.4658729225
     C    -2.7080834487    4.2519211421   -0.8420319216
     C    -3.2244495787    5.4071496517   -1.3879707109
     C    -2.6695915926    6.0030093519   -2.5539659197
     C    -3.2814691100    7.2790726811   -3.1148904192
     C    -4.7719755946    7.0031166091   -3.4664920845
     C    -3.2108100244    8.3874631818   -2.0254668318
     C    -2.5603130197    7.7833567266   -4.3785445200
     C    -1.5528172474    5.3651952252   -3.1489162902
     C    -1.0140813559    4.2046454629   -2.6265836721
     H    -3.1421289807    3.8078600249    0.0474845137
     H    -4.0798587328    5.8712953088   -0.9111465686
     H    -4.8627647028    6.2218850239   -4.2281193843
     H    -5.2151042448    7.9204149199   -3.8664632611
     H    -5.3608960012    6.7061174881   -2.5930138720
     H    -2.1745521363    8.6116232423   -1.7518038974
     H    -3.7584764164    8.1196204146   -1.1162796571
     H    -3.6615374461    9.3019801187   -2.4236139024
     H    -1.5101920760    8.0291204365   -4.1848694685
     H    -3.0459216031    8.6990956898   -4.7268975231
     H    -2.6092948354    7.0601419642   -5.2003737887
     H    -1.1046796883    5.7905142994   -4.0379826367
     H    -0.1602187173    3.7247217413   -3.0933375683
     C    -0.7858754542   -0.3885167675    1.9262849699
     N    -1.2756989670   -0.5328425605    2.9848745174
     C    -1.8348343633   -0.6991784520    4.2141930477
     C    -1.6470129410   -1.9172038172    4.9119703163
     C    -2.2109624282   -2.0596337778    6.1617909421
     C    -2.9735061497   -1.0246612625    6.7678993363
     C    -3.5611248082   -1.2300973755    8.1584584162
     C    -4.4928850371   -2.4747184705    8.1340073052
     C    -2.3905362422   -1.4837335276    9.1515115762
     C    -4.3748451831   -0.0169145215    8.6462228172
     C    -3.1446874307    0.1767176536    6.0371099120
     C    -2.5907401407    0.3513557299    4.7831509622
     H    -1.0657224697   -2.7160436336    4.4634725259
     H    -2.0621389228   -2.9927855484    6.6928903737
     H    -5.3304236645   -2.3294690035    7.4438890907
     H    -4.9033397075   -2.6288226336    9.1368370408
     H    -3.9656088722   -3.3907811456    7.8503437265
     H    -1.7059958888   -0.6299521757    9.1846080640
     H    -1.8159062879   -2.3794677967    8.8964009146
     H    -2.8025777888   -1.6284531162   10.1550833300
     H    -3.7629919407    0.8884668928    8.7281795297
     H    -4.7716750230   -0.2273910774    9.6432660084
     H    -5.2312131971    0.1914590407    7.9952543903
     H    -3.7213186050    0.9868729450    6.4652028329
     H    -2.7263409769    1.2786614272    4.2364323071
