53
-1.2922450531349994e+03 frame 68   xyz file generated by TeraChem
    Co    -0.0138061658    0.0078011632    0.0629606192
     N    -1.1690441210   -0.9577577238   -1.2464260111
     N    -0.4809383052   -1.5198640073    1.1948374532
     C    -1.3885306596   -0.6529102682   -2.5300314286
     H    -0.9521688208    0.2688031125   -2.8981701955
     C    -2.1367983989   -1.4710307554   -3.3909363316
     H    -2.2701646890   -1.1619136175   -4.4231012479
     C    -2.7004490274   -2.6677547045   -2.9224731884
     C    -2.4484620961   -2.9855157456   -1.5757641573
     H    -2.8414013101   -3.9118707679   -1.1713255761
     C    -1.8895571102   -3.4754717892    1.3799241717
     H    -2.5796866114   -4.1708855820    0.9156943075
     C    -1.5601740256   -3.6467940363    2.7340183450
     C    -0.6776652212   -2.7002632543    3.2833081093
     H    -0.3840737807   -2.7541034216    4.3276355836
     C    -0.1647730420   -1.6651434198    2.4883864965
     H     0.5144674127   -0.9316584996    2.9126806410
     C    -1.6857691183   -2.1358598643   -0.7615871051
     C    -1.3570102847   -2.4128054579    0.6324168741
     C    -2.1290585402   -4.7614103446    3.5584608215
     C    -3.5210597563   -3.5649286154   -3.7985528987
     H    -3.5167218011   -3.2330986991   -4.8386282983
     H    -4.5625573502   -3.5850878282   -3.4515077372
     H    -3.1506975680   -4.5958896253   -3.7593760888
     H    -2.7055254016   -5.4660772396    2.9555691390
     H    -2.7894507965   -4.3573338393    4.3370382373
     H    -1.3318295510   -5.3104754418    4.0725619067
     N     1.9471582949    0.2262825593    0.3582308118
     N     0.1886860474    1.7737660563   -0.7602791205
     C     2.8078830368   -0.6723783318    0.8517376954
     H     2.3882160484   -1.6064594002    1.2078993960
     C     4.1907012439   -0.4483361649    0.9138596724
     H     4.8299044444   -1.2240502203    1.3252738277
     C     4.7366468107    0.7628138493    0.4525205176
     C     3.8251814065    1.6922288811   -0.0728581338
     H     4.1984028971    2.6336567161   -0.4598142048
     C     1.7034192716    3.6280193464   -1.0969495642
     H     2.7067572590    4.0329779292   -1.0274274645
     C     0.6727337225    4.4472070348   -1.5853545189
     C    -0.6089956389    3.8718926264   -1.6303414826
     H    -1.4634724886    4.4433487965   -1.9810944226
     C    -0.8062073766    2.5470399271   -1.2148287114
     H    -1.7974924430    2.1048357076   -1.2427457500
     C     2.4507813409    1.4115800425   -0.1214959228
     C     1.4485750746    2.3108841611   -0.6823555206
     C     0.9146409163    5.8624460750   -2.0144993947
     C     6.2096265687    1.0303153074    0.5040784573
     H     6.6066221740    0.8308546914    1.5061614876
     H     6.4507116191    2.0599192533    0.2318656938
     H     6.7398641662    0.3603299677   -0.1857520764
     H     1.9780119265    6.1097797358   -2.0356761808
     H     0.4153533407    6.5564294656   -1.3254425911
     H     0.4927100247    6.0459110611   -3.0093021003
