47
-1.8926261307872639e+03 frame 60   xyz file generated by TeraChem
    Mn    -0.0587474068    0.0067764015    0.0152102625
     C     4.7802075295    0.8292163362    0.4948681311
     C     3.9427497289    1.8403995441    0.0176817974
     C     2.5785338479    1.5961594651   -0.0709013097
     N     2.0215336528    0.4134460479    0.2911103504
     C     2.8438440173   -0.5626009292    0.7553069110
     C     4.2171135807   -0.3936632936    0.8703543384
     H     5.8513753161    0.9902688832    0.5718616306
     H     4.3393403304    2.8038565288   -0.2846599376
     H     1.9000515591    2.3599360128   -0.4394008945
     H     2.3780444279   -1.5037196592    1.0382795445
     H     4.8316682908   -1.2059692834    1.2440269126
     C    -0.8259580717   -3.5156484172   -3.3407592388
     C     0.4693517283   -3.1229962428   -2.9964614084
     C     0.6384590120   -2.1163961863   -2.0544114107
     N    -0.4071747151   -1.4946346245   -1.4530943645
     C    -1.6624905952   -1.8813514696   -1.7975897575
     C    -1.9103846353   -2.8802897068   -2.7284625584
     H    -0.9885304233   -4.3009419008   -4.0729736676
     H     1.3384508440   -3.5880783117   -3.4496807098
     H     1.6320700731   -1.7866506708   -1.7657499258
     H    -2.4847248046   -1.3625746460   -1.3106531628
     H    -2.9324685978   -3.1536732987   -2.9688173700
     C    -2.4601661832    4.0720320272   -1.6672682877
     C    -1.9571896038    3.0873160103   -2.5451823241
     C    -1.2925880170    1.9936114837   -2.0113362408
     N    -1.0916001257    1.8220699730   -0.6806037558
     C    -1.5829401941    2.7655782077    0.1594516983
     C    -2.2611151607    3.8913282456   -0.2789920707
     S    -3.3170296918    5.5052877586   -2.1803190970
     H    -2.0736453911    3.1655912697   -3.6213615133
     H    -0.9004702620    1.2227644935   -2.6680494978
     H    -1.4162005476    2.6101376565    1.2205476654
     H    -2.6232084564    4.6165865514    0.4432054047
     H    -3.2729168289    5.2755540726   -3.5125656852
     C    -1.4283897605   -1.3609608231    4.6461078337
     C    -0.3946263998   -0.4230672181    4.4327480076
     C    -0.0676130639   -0.0740825226    3.1311790621
     N    -0.6939872892   -0.5873614982    2.0428364334
     C    -1.6863995730   -1.4860734341    2.2522142550
     C    -2.0830494844   -1.8989284899    3.5144692343
     S    -1.9543194688   -1.9095536714    6.2190696240
     H     0.1517079843    0.0243151118    5.2569210467
     H     0.7344823884    0.6335716418    2.9442118372
     H    -2.1708632415   -1.8969182529    1.3723006751
     H    -2.8807349814   -2.6285822463    3.6150148485
     H    -1.0960445282   -1.1753585571    6.9634127648
