49
-1.5061812782164766e+03 frame 129   xyz file generated by TeraChem
    Co     0.0104800563    0.0001153695    0.0630810413
     C     3.4494891701    1.9963513582    2.7233672597
     C     2.3366845541    2.7515476142    2.2968238888
     C     1.3703371435    2.1313692199    1.5184661516
     N     1.4387729890    0.8225434954    1.1699897505
     C     2.5050472111    0.0962475304    1.5871306385
     C     3.5299201017    0.6385469592    2.3489237078
     C     4.4712097476    2.5929936785    3.5141482275
     H     2.2364542358    3.7985354750    2.5635419344
     H     0.5158032375    2.6931505122    1.1573856738
     H     2.5332735388   -0.9492610062    1.3000671682
     H     4.3713084197    0.0239095607    2.6516272665
     N     5.3113685161    3.0841745311    4.1642892946
     C    -3.4812598966   -1.9244416136   -2.6036082114
     C    -2.1504348876   -1.8990387958   -3.0717790111
     C    -1.1739488841   -1.3230592108   -2.2717826413
     N    -1.4436452723   -0.8014610858   -1.0500112520
     C    -2.7210980037   -0.8337177167   -0.5974442373
     C    -3.7643493240   -1.3710377665   -1.3370716663
     C    -4.5177658807   -2.4963586314   -3.3936950780
     H    -1.8907187172   -2.3160667471   -4.0393323928
     H    -0.1461859016   -1.2735512043   -2.6168706995
     H    -2.9079542999   -0.4151860074    0.3861229587
     H    -4.7751617217   -1.3664924929   -0.9424708637
     N    -5.3700547694   -2.9666267390   -4.0429030091
     C     0.6470156622    3.2690989894   -3.3811560829
     C     1.6672833587    2.3471978920   -3.0601534764
     C     1.4416964907    1.4292795813   -2.0417820585
     N     0.2786016217    1.3779230974   -1.3515622638
     C    -0.7061267403    2.2574371142   -1.6694647008
     C    -0.5627251511    3.2169055620   -2.6594601411
     C     0.8405553453    4.2295332224   -4.4136450390
     H     2.6149076782    2.3560357063   -3.5889743293
     H     2.2159086191    0.7199953878   -1.7667384436
     H    -1.6312797566    2.1884395320   -1.1064851208
     H    -1.3703344953    3.9098592643   -2.8716354033
     N     1.0015803975    5.0184528366   -5.2623636646
     C    -0.7534156204   -3.4283459694    3.3185656374
     C    -0.9916070407   -2.0720831176    3.6312917197
     C    -0.7429707113   -1.1096596113    2.6604758075
     N    -0.2924590206   -1.4213269210    1.4228518932
     C    -0.0749126529   -2.7276844761    1.1206964960
     C    -0.2791768465   -3.7523209863    2.0312833181
     C    -0.9896132486   -4.4443866287    4.2868543329
     H    -1.3524909327   -1.7799342681    4.6121696419
     H    -0.8969811688   -0.0584026806    2.8816031284
     H     0.2706417430   -2.9494557949    0.1163807201
     H    -0.0799214017   -4.7816015494    1.7514924707
     N    -1.1843268760   -5.2779008979    5.0844956326
