21
-1.2970430265606103e+03 frame 46   xyz file generated by TeraChem
    Fe    -0.1362802372    0.2257801633   -0.0799004289
     S     1.4649722220    1.5999258473    0.5829124528
     C     2.3641526359    0.7394353048    1.7223413915
     N     2.9466222473    0.1022889611    2.5117864334
     S    -0.0502712857   -1.4624705067   -1.8325907132
     C    -1.4958894325   -1.1371782269   -1.0829266362
     N    -2.2739296033   -0.6352466187   -0.3361418953
     C    -1.7605529324    2.6410852765   -0.6918243455
     N    -0.7622483637    1.7160768114   -1.3206886282
     H     0.0202854996    2.2610035417   -1.6923741247
     H    -1.1873192846    1.2699177010   -2.1371362039
     H    -1.2909000272    3.1545920197    0.1487216421
     H    -2.6050454795    2.0478850858   -0.3388071774
     H    -2.1071013345    3.3784603340   -1.4208932748
     C    -0.6997168202   -0.6952192922    2.6571813572
     N     0.0526703133   -1.0971024773    1.4243110642
     H    -0.2966983280   -2.0023133138    1.1008760947
     H     1.0375069790   -1.2422879985    1.6692432637
     H    -1.7498712404   -0.5534682156    2.3973410413
     H    -0.2764712660    0.2339689488    3.0401923626
     H    -0.6126154248   -1.4726483321    3.4209091301
