13
-7.5147190495874759e+02 frame 48   xyz file generated by TeraChem
    Fe    -0.4591411482   -0.3056496847    0.1474727329
     O     1.4580428848   -0.6889839744    0.3211205159
     H     2.0468783779    0.0914170257    0.2608900437
     H     1.8263526432   -1.2656086765    1.0209547883
     O    -0.3609703124   -1.1336749915   -1.6367161870
     H    -1.0869274395   -1.5920467656   -2.1061896087
     H     0.4762786347   -1.5646154801   -1.9010542766
     O    -0.1581778993    1.4284460799   -0.6672675019
     H    -0.3978880068    2.2985246685   -0.2921095945
     H    -0.2109003150    1.4846772984   -1.6424837412
     S    -0.8387449318    0.6281023834    2.3325161462
     H    -2.1892125914    0.5918422560    2.4371744435
     H    -0.6420209272   -0.4173712402    3.1697545217
