49
-1.1640115659433120e+03 frame 46   xyz file generated by TeraChem
    Cr     0.3015222216   -0.3496448802   -0.3771555708
     O    -0.6397551768   -1.3990907459   -1.6377595857
     C    -1.5206608013   -2.2423408262   -1.0693769573
     C    -1.5764199687   -2.1756098000    0.3456579094
     C    -2.4468210693   -2.9966415534    1.0562318342
     C    -3.2894262878   -3.9085642033    0.3835719965
     C    -4.2215263111   -4.8144422999    1.2116938087
     C    -3.3716646550   -5.7289461192    2.1264022069
     C    -5.1535284141   -3.9486231527    2.0923025718
     C    -5.1078246253   -5.7151367443    0.3301070992
     C    -3.2236687396   -3.9582121347   -1.0150605812
     C    -2.3476753001   -3.1356498311   -1.7439965374
     O    -0.7344354400   -1.2824504142    0.8972720589
     H    -2.4521022504   -2.9158545964    2.1404862324
     H    -2.7187114943   -6.3730808918    1.5262148773
     H    -4.0131631897   -6.3707293102    2.7467935266
     H    -2.7339811739   -5.1400415692    2.7931416647
     H    -5.7861504580   -3.3050927911    1.4699555986
     H    -4.5808603200   -3.3012221031    2.7632880069
     H    -5.8071940573   -4.5817198191    2.7085167628
     H    -5.7516711032   -5.1221255238   -0.3293034756
     H    -5.7543745951   -6.3372526575    0.9621136484
     H    -4.5064684161   -6.3850693193   -0.2946018308
     H    -3.8567849318   -4.6438952420   -1.5692467891
     H    -2.3074884261   -3.1870797917   -2.8295826550
     O     2.1694896865   -0.2232976437   -0.1055501000
     C     2.6518032240    1.0237321649   -0.2430932758
     C     1.6737607935    1.9995947756   -0.5528581572
     C     2.0356731740    3.3324373705   -0.7249782939
     C     3.3834297095    3.7344081879   -0.5971526502
     C     3.7467793734    5.2148416234   -0.8227422364
     C     3.3911569875    5.6177809898   -2.2734308046
     C     2.9534048444    6.1096548736    0.1588715380
     C     5.2462430520    5.4965793704   -0.6050562734
     C     4.3371397844    2.7554233737   -0.2883789675
     C     3.9832580405    1.4068132091   -0.1115604979
     O     0.4236972162    1.5159622136   -0.6595949051
     H     1.2521397172    4.0465239274   -0.9663874096
     H     3.9616574215    5.0166393917   -2.9910742169
     H     3.6185924593    6.6777113585   -2.4560588154
     H     2.3283134872    5.4584835813   -2.4815211648
     H     3.2032111056    5.8612721659    1.1970488307
     H     1.8731409555    5.9795207921    0.0395070219
     H     3.1853639391    7.1713356883   -0.0053761188
     H     5.5575222858    5.2490167911    0.4161750120
     H     5.4542491681    6.5613147968   -0.7713760008
     H     5.8716740639    4.9225981101   -1.2981884317
     H     5.3830593335    3.0246102174   -0.1798067028
     H     4.7360349036    0.6586592692    0.1256794053
