38
-1.6046830774794064e+03 frame 70   xyz file generated by TeraChem
    Fe    -0.0745619222   -0.1024461270    0.0711631867
     C     4.6098318559   -0.4741409433   -0.2782190552
     C     3.9410740996    0.4892156453   -1.0561705460
     C     2.5630433804    0.5843817495   -0.9725558802
     N     1.8353255754   -0.2306698356   -0.1675220254
     C     2.4739872046   -1.1664789305    0.5868417698
     C     3.8512196042   -1.3123845665    0.5575845957
     C     6.0317899858   -0.5968020128   -0.3391726346
     H     4.4913326972    1.1556826498   -1.7113695272
     H     2.0183383963    1.3211492203   -1.5495663772
     H     1.8582673221   -1.7925511259    1.2232435108
     H     4.3260528070   -2.0654834723    1.1771909157
     N     7.1891275216   -0.6961918579   -0.3941808056
     C    -2.1423633320   -2.5684919020   -3.3166841272
     C    -0.7536342974   -2.6775997173   -3.1239848236
     C    -0.1421067931   -1.8951658713   -2.1589778317
     N    -0.8497422843   -1.0184973702   -1.4026484218
     C    -2.1931394053   -0.9114670780   -1.5738945343
     C    -2.8679084387   -1.6642498310   -2.5193257682
     C    -2.8038240720   -3.3625541181   -4.3026818544
     H    -0.1601601516   -3.3662012014   -3.7155361079
     H     0.9233384639   -1.9602024775   -1.9784600161
     H    -2.7225339828   -0.2202218463   -0.9267416398
     H    -3.9418024714   -1.5577832226   -2.6279805729
     N    -3.3397291402   -4.0058647249   -5.1097606661
     C    -0.8723051130    4.4821147296   -0.6345037953
     C    -0.9068677483    3.6242382863   -1.7499582278
     C    -0.6538961549    2.2748259414   -1.5707183129
     N    -0.3688928017    1.7587483450   -0.3494731945
     C    -0.3358657281    2.5783763855    0.7323009308
     C    -0.5821926612    3.9381594156    0.6290418779
     C    -1.1279712398    5.8795406839   -0.7859806113
     H    -1.1313937142    4.0062998035   -2.7399365526
     H    -0.6749015191    1.5810374188   -2.4025145196
     H    -0.1238529613    2.1228168039    1.6957007550
     H    -0.5534210377    4.5618900234    1.5158944052
     N    -1.3329913374    7.0171114173   -0.9130927544
    Cl    -0.9596356981   -0.9796731652    1.7855041860
