9
-4.9487545164500301e+02 frame 21   xyz file generated by TeraChem
    Fe     0.1734398782    0.2860408912   -0.0291448408
     C     2.0206761296   -0.1061865872    0.3027477404
     N     3.1700888336   -0.2439831098    0.4807937827
     C    -0.2408133241   -0.9784430470   -1.2955412290
     N    -0.4878141937   -1.7709753405   -2.1202088874
     C    -1.1427290735    1.5912766683   -0.5087134832
     N    -1.8699680338    2.4579288165   -0.8116973275
     C    -0.5758728093   -0.4077246892    1.4982901276
     N    -1.0471190029   -0.8279818641    2.4834410542
