9
-4.5775257471972793e+02 frame 20   xyz file generated by TeraChem
    Cr    -0.0142856996    0.0126768789   -0.0363720431
     C     1.9346261750    0.1833730872    0.1931514373
     N     3.0946203396    0.2733564659    0.3265886760
     C    -0.5821300523   -1.3036775512   -1.3895131423
     N    -0.8982446972   -2.0538464935   -2.2324945497
     C    -0.5116250891    1.9021082557   -0.3546652668
     N    -0.8220338697    3.0133980274   -0.5553886111
     C    -0.8549980240   -0.7919015635    1.5407792144
     N    -1.3460466598   -1.2355360247    2.5078879924
