45
-1.0791172588718421e+03 frame 65   xyz file generated by TeraChem
    Cr    -0.0150646357    0.0177087424    0.0119875710
     C     4.1694133880   -0.1784797453   -2.5588439566
     C     3.1937358271    0.7696117393   -2.8734351083
     C     2.0237230215    0.8037844448   -2.1246803954
     N     1.7834847540   -0.0586563294   -1.1093369189
     C     2.7298303283   -0.9815902706   -0.8173531179
     C     3.9317112825   -1.0669313131   -1.5084215291
     H     5.0966450708   -0.2245897711   -3.1218342910
     H     3.3347614511    1.4765964333   -3.6839975710
     H     1.2533338924    1.5399775259   -2.3328290390
     H     2.5017809603   -1.6696619760   -0.0093883640
     H     4.6614499138   -1.8189333416   -1.2280403407
     C    -0.6995313176   -4.7822449503   -0.8024806958
     C    -0.6716105139   -4.2789957894    0.4996127689
     C    -0.4885915749   -2.9147140298    0.6886396064
     N    -0.3200433861   -2.0526300610   -0.3414772301
     C    -0.3385691933   -2.5494569740   -1.6005410517
     C    -0.5335524877   -3.8982309915   -1.8704209027
     H    -0.8475051561   -5.8428072363   -0.9817770757
     H    -0.7938781085   -4.9297261002    1.3588797222
     H    -0.4808315583   -2.4896440268    1.6879667422
     H    -0.1908370321   -1.8373893291   -2.4069617324
     H    -0.5511973123   -4.2443330913   -2.8983081346
     C     0.6245826310    4.8307427383    0.7589496414
     C    -0.5796027537    4.3483471992    0.2427684216
     C    -0.7288388524    2.9801959620    0.0535063983
     N     0.2545088841    2.0929982299    0.3355702024
     C     1.4233563783    2.5697379727    0.8253626003
     C     1.6413825612    3.9219506736    1.0581018678
     H     0.7679761136    5.8941793426    0.9242999011
     H    -1.3954322477    5.0180233182   -0.0075470923
     H    -1.6594467416    2.5711652758   -0.3282294203
     H     2.2025592888    1.8408707051    1.0269792189
     H     2.5927802101    4.2516767455    1.4615970938
     C    -4.1068357898    0.1089072107    2.7340356829
     C    -4.1265857566   -0.3861437808    1.4287032676
     C    -2.9446226983   -0.4016536286    0.6991334738
     N    -1.7728827257    0.0598043875    1.1964213652
     C    -1.7642386166    0.5456355081    2.4600525695
     C    -2.9009103161    0.5785272817    3.2581344742
     H    -5.0132296530    0.1276770871    3.3314515180
     H    -5.0407343568   -0.7597930301    0.9799226685
     H    -2.9194263887   -0.8006043967   -0.3100807166
     H    -0.8136522332    0.9176026954    2.8294038786
     H    -2.8378935289    0.9686513372    4.2683451212
