26
-5.2447346551435101e+02 frame 22   xyz file generated by TeraChem
    Fe    -0.0602407951   -0.0202571743   -0.0145446578
     C     3.0541998924    0.3941975540    0.4336700131
     O     1.8265184357    0.2456246606    0.2765959381
     H     3.5593066179   -0.0862360342    1.2842846028
     H     3.6281998100    1.0056534718   -0.2779988395
     C    -1.8185881395   -1.9665698314   -1.6226084540
     N    -0.3819220429   -1.5382780994   -1.3873243288
     H     0.0295714694   -1.2563927133   -2.2899659138
     H     0.1654926501   -2.3638866869   -1.1005173753
     H    -2.4035612884   -1.1246570897   -1.9991644737
     H    -2.2429163883   -2.3626699249   -0.6981179345
     H    -1.8238822299   -2.7614266933   -2.3796920791
     C    -1.3426904907    2.7785719838    0.2203770480
     N    -0.6963873091    1.8246922842   -0.7659670912
     H     0.1193384847    2.2917116260   -1.1884179952
     H    -1.3467921425    1.6798126967   -1.5514464203
     H    -0.6594061074    2.9727694625    1.0498875783
     H    -2.2910890499    2.3643911977    0.5672771810
     H    -1.5423213481    3.7270262073   -0.2950974092
     C    -0.4151822679   -1.6063420801    2.5873229064
     N    -0.9347424234   -0.3929428674    1.8422108739
     H    -0.8173387568    0.4375531884    2.4398852735
     H    -1.9531673696   -0.4880515009    1.7218367834
     H     0.6394728254   -1.4632724483    2.8261280492
     H    -0.5649439640   -2.5016585794    1.9811588980
     H    -0.9824316630   -1.7136600207    3.5207100567
