11
-1.6965142072527656e+03 frame 43   xyz file generated by TeraChem
    Fe     0.3677879955    0.3486239322   -0.5785956456
     S     2.5694887144    0.8366373023    0.3477609189
     C     3.0307128436   -0.4329523106    1.3606746659
     N     3.4304012945   -1.2776267130    2.0730598746
     S    -1.1664108765   -0.3789922140   -2.2658982005
     C    -0.8054279019   -2.0222988644   -2.4392334393
     N    -0.5977877506   -3.1653101099   -2.6187763093
     S     0.0426144670    2.6518603767   -0.8404614106
     C    -1.2272828855    3.0286355638   -1.8953021189
     N    -2.0889014694    3.3903109817   -2.6062335913
     F    -0.3773338871   -0.3445207046    0.8686478813
