39
-1.8328929794976166e+03 frame 281   xyz file generated by TeraChem
    Fe     0.3796434737    0.2001367872    0.4430017796
     S     2.6347664389    0.5924847052    0.8244009449
     C     2.0856400972    1.7642142462    1.9113431666
     N     1.6452384775    2.5607270793    2.6499012769
     S     0.3434568190   -1.4493948500   -1.1960675266
     C    -1.3330851132   -1.3754308166   -0.9987291233
     N    -2.4858261321   -1.2750493853   -0.8110212411
     C    -0.4961489205    1.9045684405   -0.3660667171
     N    -0.9757530305    2.8510733051   -0.8315953802
     C    -2.3130031068    4.8268660407   -0.2784638849
     C    -3.6743796418    4.6016768636   -0.0443356719
     C    -4.3368771331    5.3208124177    0.9503235429
     C    -3.6407343670    6.2611050057    1.7130335812
     C    -2.2818181986    6.4858732757    1.4809340844
     C    -1.6166134800    5.7704217832    0.4860315583
     H    -4.2195162215    3.8765591577   -0.6440420402
     H    -5.3956427303    5.1530953475    1.1228785289
     H    -1.7415492208    7.2224375313    2.0676418745
     H    -0.5608472312    5.9531385327    0.3004924872
     H    -4.1591422250    6.8242562360    2.4833391951
     C    -1.5941153020    4.0490181488   -1.3608001070
     H    -0.7876165938    4.6278125978   -1.8219211368
     H    -2.2743722538    3.7175578273   -2.1511901005
     C    -0.4694497942   -0.5800909611    2.1742496467
     N    -0.9374079619   -1.0434407750    3.1275827977
     C    -1.0478389017   -3.1215005251    4.4133152684
     C    -1.7658793186   -4.1363000538    3.7693737956
     C    -1.3408321258   -5.4604711533    3.8712498686
     C    -0.2000254181   -5.7726953310    4.6144396961
     C     0.5159870883   -4.7614440427    5.2590085010
     C     0.0946023608   -3.4356556472    5.1583655617
     H    -2.6600107237   -3.8960804788    3.1987174479
     H    -1.9039302648   -6.2471684614    3.3783852336
     H     1.3969553600   -5.0045351193    5.8452250683
     H     0.6479165923   -2.6498474285    5.6672688261
     H     0.1266934390   -6.8049803705    4.6973515041
     C    -1.5041563999   -1.6821227428    4.2974480488
     H    -1.1946105842   -1.0781511894    5.1557841605
     H    -2.5902768541   -1.5985669155    4.1910362567
