29
-1.5648536466513997e+03 frame 53   xyz file generated by TeraChem
    Cr     0.0282118824   -0.0288237835   -0.1161842842
     N     1.8285274186    0.2936205058    0.1523319374
     C     3.0373076034    0.2567715547    0.2292976728
     S     4.6107981275    0.2344198517    0.3390132231
     N    -1.0364322409   -1.0877889524   -1.1997919411
     C    -1.5346936269   -1.7498263272   -2.0837614818
     S    -2.2023563340   -2.6202792153   -3.2184610073
     C    -1.8739989133    4.3046025480   -0.8571382104
     C    -0.5019022506    4.1760904194   -0.6403561959
     C     0.0298753449    2.9144017529   -0.4098326007
     N    -0.7445546085    1.8034218115   -0.3898178980
     C    -2.0767442792    1.9272861091   -0.6014919136
     C    -2.6715218050    3.1591500408   -0.8358315143
     H    -2.3142357272    5.2794897609   -1.0422445897
     H     0.1568093378    5.0375650255   -0.6508382438
     H     1.0869237059    2.7562591501   -0.2369329760
     H    -2.6570225926    1.0115647565   -0.5957130495
     H    -3.7415162982    3.2111724775   -1.0048490794
     C    -1.2997031318   -1.3342664409    4.2989169349
     C    -0.3383807996   -0.3419068575    4.0996840876
     C    -0.0012496799    0.0183431530    2.8029254505
     N    -0.5767995911   -0.5628693309    1.7232667897
     C    -1.5071814913   -1.5277708016    1.9154167001
     C    -1.8908161915   -1.9341001784    3.1868479831
     H    -1.5800408439   -1.6365587725    5.3031992545
     H     0.1519730149    0.1475410331    4.9340200090
     H     0.7506529172    0.7711359556    2.5981700659
     H    -1.9311538586   -1.9671559576    1.0211138461
     H    -2.6385106634   -2.7123954878    3.2935076355
