41
-9.6319460526031264e+02 frame 173   xyz file generated by TeraChem
    Fe    -0.6814660119   -0.1742129653    0.2583813107
     N     0.3763335849   -1.8514831882   -0.2648732604
     H     0.9616504509   -2.2119185444    0.4921193030
     H    -0.2401244288   -2.6308531249   -0.5232309124
     H     1.0102966409   -1.7241579377   -1.0606669723
     N    -0.8535174760    0.2910593294   -1.7309988839
     H    -0.8674202392   -0.5198720318   -2.3579629858
     H    -1.7058952983    0.8127958883   -1.9507394426
     H    -0.0818823136    0.8831502414   -2.0594547974
     C    -1.7101974568    1.4718238806    0.7119503260
     N    -2.2908786939    2.4361413935    0.9963043462
     C    -3.9898940666    4.1940087489    0.4604429929
     C    -3.6507297758    5.2468718271   -0.3929929957
     C    -4.6277645062    5.8241901359   -1.2524326876
     C    -5.9403290628    5.3497250642   -1.2524232894
     C    -6.2857923808    4.3047875065   -0.3985759078
     C    -5.3124565407    3.7294769182    0.4632717619
     H    -2.6447210128    5.6587880078   -0.3939662187
     H    -4.3412285992    6.6486165658   -1.8984094911
     H    -7.3044606465    3.9302940509   -0.3700310151
     H    -5.6192300824    2.9390283088    1.1438620725
     H    -6.6857639092    5.7995768030   -1.9001024897
     C    -2.9751244656    3.6429611941    1.4467882013
     H    -3.4454491795    3.3777799342    2.3991970881
     H    -2.1831914692    4.3698334055    1.6541664456
     C    -0.4672097087   -0.6364670819    2.1840090703
     N    -0.3640207093   -0.8991068319    3.3102662216
     C     0.8434138270   -2.0450220312    5.1798404946
     C     0.6763753781   -3.4235750905    5.3384035962
     C     1.7396468819   -4.2288667237    5.8353848022
     C     2.9633454772   -3.6526803398    6.1778956069
     C     3.1330932803   -2.2778492006    6.0293307063
     C     2.0714539644   -1.4712375796    5.5344024009
     H    -0.2755291826   -3.8973902710    5.1119475455
     H     1.5801115002   -5.2957649985    5.9589419607
     H     4.0712374117   -1.8056723233    6.3045047413
     H     2.2224230856   -0.3971562330    5.4602509293
     H     3.7682402979   -4.2667588889    6.5685146299
     C    -0.3200353070   -1.1724063362    4.7422607867
     H    -0.2927197401   -0.1927367920    5.2301934980
     H    -1.2813047008   -1.6389157971    4.9811135343
