46
-1.4767742541678324e+03 frame 28   xyz file generated by TeraChem
    Cr    -0.0319582012    0.0188974762    0.0396470130
     C     4.5369249856   -1.2586728449    0.1624495811
     C     4.1571269889    0.0642697311    0.4146308369
     C     2.8152931465    0.4056605140    0.3349286155
     N     1.8601358473   -0.5103035642    0.0108348500
     C     2.2307771906   -1.7991955193   -0.2282290115
     C     3.5551171504   -2.2022024819   -0.1629296069
     H     5.5818727163   -1.5504047529    0.2191287543
     H     4.8898310142    0.8236158637    0.6680100076
     H     2.4841877229    1.4225469247    0.5255482737
     H     1.4393970763   -2.4978318081   -0.4824525286
     H     3.8116456699   -3.2369116783   -0.3660773826
     C    -2.5597145707   -1.8627944945   -3.5089019696
     C    -1.1793326183   -1.6779749017   -3.6453037750
     C    -0.4611407470   -1.1573401432   -2.5793717218
     N    -1.0630607110   -0.8285906333   -1.4021053586
     C    -2.4079508785   -1.0023429564   -1.2727254630
     C    -3.1799203279   -1.5178165699   -2.3022085660
     H    -3.1437742436   -2.2673944596   -4.3307506412
     H    -0.6637471049   -1.9341302482   -4.5652325365
     H     0.6114000669   -1.0019402446   -2.6496792364
     H    -2.8525107164   -0.7195908163   -0.3229508708
     H    -4.2480195550   -1.6460603091   -2.1596081622
     C    -0.8824372416    4.5959684565   -0.9122979221
     C     0.1386740207    3.9088116078   -1.5794541045
     C     0.3869888837    2.5863398236   -1.2472516900
     N    -0.3285642152    1.9389202806   -0.2843901899
     C    -1.3306207891    2.6061289493    0.3547741802
     C    -1.6261414622    3.9301249294    0.0680100039
     H    -1.0963260315    5.6330597245   -1.1550776417
     H     0.7356463206    4.3908549194   -2.3468655041
     H     1.1709760160    2.0216460365   -1.7439285531
     H    -1.8874107278    2.0555205004    1.1062279548
     H    -2.4263892793    4.4289590437    0.6050649533
     C    -1.2391530554   -1.4217653067    4.4061475078
     C    -1.4714980573   -2.2422175688    3.2701129330
     C    -1.1612606038   -1.7806002519    2.0132364019
     N    -0.6372124387   -0.5328336132    1.7894728915
     C    -0.3907586582    0.2587124891    2.8848704757
     C    -0.6755119571   -0.1375064066    4.1666198763
     S    -1.5822521692   -1.8666415843    6.0377223845
     H    -1.8958425703   -3.2360053512    3.3704964071
     H    -1.3403322407   -2.4051806557    1.1435041738
     H     0.0425952103    1.2364528968    2.6953768999
     H    -0.4669497226    0.5407071497    4.9883997055
     H    -2.0716926895   -3.0993568422    5.7834476316
