15
-1.7524219327663211e+03 frame 21   xyz file generated by TeraChem
    Fe     0.1410745165    0.2411441235    0.3206464396
     C     4.7704237249   -0.2965497270   -0.2749728848
     C     4.0195732954    0.4865359682   -1.1516651091
     C     2.6573323680    0.6334663950   -0.9269155668
     N     2.0491370237    0.0401172064    0.1210251959
     C     2.7660072935   -0.7165216020    0.9763978980
     C     4.1316891818   -0.9062668494    0.8037195520
     H     5.8370102354   -0.4283880214   -0.4301109821
     H     4.4739928975    0.9806220850   -2.0033356578
     H     2.0264270875    1.2321601938   -1.5727785810
     H     2.2174147572   -1.1527941498    1.8018030588
     H     4.6753777422   -1.5220772300    1.5116644446
    Cl    -0.4870889519   -1.1903302261   -1.1957963267
    Cl    -0.1989509723    2.3541506251   -0.0239844861
    Cl    -0.1857168284   -0.0485762172    2.4630420431
