8
-2.5274035916905345e+02 frame 54   xyz file generated by TeraChem
    Mn     0.0998861148    0.2036230641    0.3418316010
     C     2.9550734289   -0.4810025864   -0.6692649571
     O     2.2783175735    0.0427262376    0.2038852463
     H     2.4877115127   -0.9852401465   -1.5285946773
     H     4.0525046297   -0.4527614996   -0.5993521769
     I    -0.6797723273   -1.2729472461   -1.7196400550
     I    -0.3288383959    2.8964463090    0.9193161574
     I    -0.5110662665    0.0499031641    3.0510599377
