11
-1.0880621300710116e+03 frame 65   xyz file generated by TeraChem
    Fe    -0.0787312434    0.0326542104   -0.4494619293
     O     1.9086078413   -0.2219517288   -0.3347439604
     N     3.7224406862   -0.1738045403    1.2860610911
     C     2.8175262809   -0.1909397200    0.5259686660
     O    -0.8971282457   -0.7767711241   -2.1059425470
     N    -0.6567280850   -2.7597978897   -3.4953451708
     C    -0.7498948617   -1.8090070663   -2.7986568855
     O    -0.3006126529    1.9830629427   -0.8701410426
     N    -1.2381600529    4.0162905520    0.0817237245
     C    -0.7898445677    3.0114267820   -0.3501667950
    Cl    -1.1208521205   -0.9411946804    1.4347287563
