10
-5.7745756005203043e+02 frame 16   xyz file generated by TeraChem
    Co    -0.1096000564    0.0504553031    0.0445472096
     C     3.2161242741   -0.0116242022   -0.0722258442
     N     2.0580239913    0.0096098046   -0.0824411936
     C     4.6750927641   -0.0367602287   -0.0504568894
     H     5.0379814857   -0.0799318674    0.9818822422
     H     5.0787837635    0.8639330396   -0.5248506521
     H     5.0501071762   -0.9134466541   -0.5890743623
     F    -0.6272613396   -1.1841489376   -1.2126892322
     F    -0.3630508938    1.8372091596   -0.2812858629
     F    -0.3369154494   -0.5352225452    1.7839892074
