43
-2.2411005791898401e+03 frame 152   xyz file generated by TeraChem
    Ni    -0.2312617283   -0.2837151306    0.1807670221
     C     1.8651269637   -2.1616299593    1.4563642287
     N     1.0811880319   -1.4577287147    0.9788886077
     C     2.8523538923   -3.0460052370    2.0576780253
     H     2.6326321662   -3.1804942680    3.1219255922
     H     3.8523316837   -2.6128049278    1.9483631078
     H     2.8298550940   -4.0212401371    1.5602123651
     C     0.5353186962   -2.4841035867   -3.9596462208
     C     0.8637425625   -1.1265710457   -3.7779100067
     C     0.6003946921   -0.5153635160   -2.5650232241
     N     0.0429571218   -1.1692888733   -1.5216681582
     C    -0.2694637489   -2.4774608814   -1.6831213887
     C    -0.0509467794   -3.1559077859   -2.8660324906
     S     0.8041685573   -3.3817314077   -5.4380122263
     H     1.3172557911   -0.5421255300   -4.5713222505
     H     0.8352714145    0.5326671066   -2.4134907369
     H    -0.7043140710   -2.9847226540   -0.8279280183
     H    -0.3298184149   -4.2022988300   -2.9361546508
     H     1.3594933174   -2.3749488820   -6.1431319926
     C    -3.4193526484    2.6294336398   -1.7532725865
     C    -3.5537388600    1.2304234922   -1.8488746280
     C    -2.5971788007    0.4093291051   -1.2804521751
     N    -1.5251166391    0.8890048238   -0.6069525392
     C    -1.3922792226    2.2343992350   -0.5022544029
     C    -2.2938450399    3.1194325342   -1.0585264407
     S    -4.5443491130    3.7849093933   -2.4311432252
     H    -4.3914803414    0.7758875348   -2.3670081804
     H    -2.6785597243   -0.6680359628   -1.3662302999
     H    -0.5359419729    2.5968401713    0.0540747559
     H    -2.1255990412    4.1855319417   -0.9463131982
     H    -5.4031770922    2.8889925682   -2.9595258389
     C    -0.7835022314    1.7661285618    4.4350777016
     C    -1.8408175023    1.0806708194    3.8059592224
     C    -1.6447691663    0.5162383280    2.5580472996
     N    -0.4633744889    0.5796944223    1.9036689606
     C     0.5627417990    1.2302488766    2.5036901015
     C     0.4431324914    1.8317269977    3.7410183501
     S    -0.8909181723    2.5340094861    6.0040646997
     H    -2.8137073837    0.9865143971    4.2765863626
     H    -2.4545363217   -0.0028515307    2.0567738824
     H     1.5040874826    1.2618394952    1.9650283438
     H     1.2995092271    2.3457393170    4.1653021105
     H    -2.1777945729    2.2173531544    6.2549203723
