9
-5.5648453658388382e+02 frame 33   xyz file generated by TeraChem
    Mn    -0.0001082232   -0.0002824206    0.0003586027
     C     1.8257046195   -0.9215541471    0.3673414072
     O     2.8153093238   -1.4155821500    0.5611998268
     C     0.2688283899   -0.3045160812   -2.0379707115
     O     0.4175329307   -0.4707455933   -3.1384165638
     C    -1.8251275187    0.9216247830   -0.3668121835
     O    -2.8138345173    1.4164429426   -0.5632060574
     C    -0.2704119295    0.3027937173    2.0386358297
     O    -0.4179945387    0.4717722462    3.1388467344
