10
-5.7752568057715166e+02 frame 248   xyz file generated by TeraChem
    Co     0.2748749919    1.0209143854    0.9519431825
     C     4.2480232176   -1.2737884156   -1.2118905757
     N     4.8249372337   -1.9614315541   -1.9509132801
     C     3.5324964041   -0.4089035651   -0.2804970300
     H     4.0024332854    0.5808928911   -0.2595564656
     H     3.5785587112   -0.8322572830    0.7292193431
     H     2.4656604580   -0.2793641007   -0.5512701296
     F     0.6940822661    0.1715417929   -0.6258736887
     F     0.0097729179    2.7674587272    0.6679070215
     F     0.0489160947    0.2154472029    2.5306631397
