41
-1.1132916463168285e+03 frame 37   xyz file generated by TeraChem
    Fe    -0.1269822714    0.1129249845    0.0345534512
     N    -0.7751434749   -1.2626225093   -1.0934984294
     N    -0.8686766797   -0.9489736636    1.4518245913
     C    -0.5988521378   -1.2951460922   -2.4338064695
     H    -0.0117002292   -0.4963256060   -2.8755985472
     C    -1.1541138983   -2.3108956917   -3.2036477754
     H    -1.0033546096   -2.3131307731   -4.2784214552
     C    -1.8929455379   -3.3109129237   -2.5651256660
     H    -2.3343838258   -4.1194546540   -3.1412713889
     C    -2.0608894812   -3.2738826294   -1.1739500126
     H    -2.6305483220   -4.0500829661   -0.6740812909
     C    -2.2325358471   -2.8583787068    1.9201598171
     H    -2.7859416883   -3.7282956584    1.5832559030
     C    -2.1976677284   -2.5330268310    3.2842893656
     H    -2.7223541387   -3.1576764616    4.0019667536
     C    -1.4884592232   -1.4081441984    3.7140925377
     H    -1.4431621244   -1.1315817940    4.7625307297
     C    -0.8273380834   -0.6337539407    2.7664072869
     H    -0.2596593049    0.2490569818    3.0485095179
     C    -1.4899187399   -2.2383394608   -0.4442382807
     C    -1.5582630509   -2.0506415936    1.0135644312
     N     1.7564079756    0.2086462047    0.0399405529
     N    -0.0482385850    1.8992496073   -0.6528841962
     C     2.5721196298   -0.8010520298    0.4166572951
     H     2.1019326699   -1.7361654763    0.7013677087
     C     3.9524890919   -0.6342479785    0.4383296193
     H     4.5868827460   -1.4597829573    0.7448212181
     C     4.4872823802    0.6001475110    0.0606798328
     H     5.5622258552    0.7579844596    0.0672513726
     C     3.6324609462    1.6392550355   -0.3307297955
     H     4.0421122338    2.5994247052   -0.6255866430
     C     1.4372170937    3.7139705770   -1.1323120711
     H     2.4396867667    4.1240637519   -1.1901543294
     C     0.3321621765    4.5113144267   -1.4672581643
     H     0.4852829593    5.5385442526   -1.7865667251
     C    -0.9599386014    3.9824190835   -1.3898354796
     H    -1.8324210188    4.5759436121   -1.6433994585
     C    -1.1168807747    2.6636431702   -0.9791720609
     H    -2.0990815863    2.2040616006   -0.9037816042
     C     2.2584950268    1.4288709380   -0.3390963904
     C     1.2262408605    2.4036460373   -0.7249610681
