20
-3.8788568454526416e+02 frame 41   xyz file generated by TeraChem
    Fe    -0.0341620543   -0.0294923225   -0.0108808912
     N     2.0318625247   -0.0846853491   -0.3118444186
     H     2.5609933273    0.5999710940    0.2530124781
     H     2.4748171169   -0.9975780731   -0.1160729347
     H     2.2863622379    0.1263424948   -1.2910097314
     N    -0.9739569305   -1.2064961844   -1.4651303809
     H    -0.8819999260   -0.8126317804   -2.4169862062
     H    -0.5989743982   -2.1669217017   -1.5402785893
     H    -1.9912443102   -1.3258966861   -1.3258867321
     N    -0.7921472000    1.9092616701   -0.1195892728
     H    -0.5348000104    2.3882399670   -0.9994690409
     H    -1.8238731245    1.9638231684   -0.0827354621
     H    -0.4632825126    2.5406306267    0.6294374614
     C     0.4052108035   -0.4910028883    3.0252075190
     N    -0.5120394656   -0.8725207861    1.8978810367
     H    -1.4803946289   -0.5917004978    2.1210840053
     H    -0.5348810258   -1.8992543447    1.7885625029
     H     0.3875337293    0.5895677175    3.1891810774
     H     1.4138072045   -0.8709501383    2.8489077850
     H     0.0183063409   -0.9741886386    3.9432624575
