11
-3.5558764295955967e+02 frame 62   xyz file generated by TeraChem
    Mn     0.2451596155    0.0087689303   -0.2050275741
     C     3.3426132541   -0.3647240562   -0.1230662524
     O     2.2688306395   -0.2153418567   -0.6970295311
     H     3.4078597058   -0.4406827552    0.9719796828
     H     4.2681166963   -0.4248317342   -0.7107089441
     C    -1.3406716029   -1.8541926029   -2.2082415513
     O    -0.3705777965   -1.4063094973   -1.6056634534
     H    -2.3448532907   -1.4245479663   -2.0841400053
     H    -1.2109977400   -2.7037916878   -2.8915958282
     I    -0.9954841783    2.3969157782   -0.0117025160
     I    -0.3651072117   -0.2226882720    2.4189844598
