35
-1.3284098740589220e+03 frame 77   xyz file generated by TeraChem
    Fe    -0.0806539876    0.1760465198   -0.0556431131
     C     4.3414172256   -1.3622130106    1.1382148177
     C     4.1719801837   -0.3431263752    0.1990203418
     C     2.8818468876    0.0422317364   -0.1413744324
     N     1.7839507616   -0.5271385807    0.4023999765
     C     1.9503763143   -1.5041101182    1.3192771681
     C     3.2110435969   -1.9497074876    1.7040130982
     H     5.3366741511   -1.6861385799    1.4269145117
     H     5.0212340922    0.1513922592   -0.2601275407
     H     2.7090494698    0.8368112396   -0.8627635958
     H     1.0435700013   -1.9058804701    1.7564438559
     H     3.2944448558   -2.7385624618    2.4437296469
     C    -1.0718199602   -2.1754233926   -4.1419385263
     C     0.2628033549   -2.0554406928   -3.7536479914
     C     0.5660747228   -1.3397924509   -2.6014580550
     N    -0.3815741608   -0.7427503510   -1.8483603252
     C    -1.6737043099   -0.8600912247   -2.2299486764
     C    -2.0568690461   -1.5683215928   -3.3620874727
     H    -1.3396929999   -2.7349637837   -5.0329287421
     H     1.0611680427   -2.5141927784   -4.3270229576
     H     1.5880988913   -1.2381164381   -2.2548577189
     H    -2.4084247264   -0.3766012693   -1.5929260401
     H    -3.1078840747   -1.6405856067   -3.6198993898
     C    -1.6088709223    4.6310398831   -1.1857574829
     C    -1.0279178890    3.8203850671   -2.1629303769
     C    -0.6403001057    2.5326926088   -1.8182714650
     N    -0.7962140791    2.0324413734   -0.5726060438
     C    -1.3586350251    2.8198635681    0.3721033254
     C    -1.7761972176    4.1184926287    0.0997452668
     H    -1.9252274436    5.6420354263   -1.4242640269
     H    -0.8788102486    4.1749034776   -3.1771810317
     H    -0.1934997413    1.8673332009   -2.5492922506
     H    -1.4740485323    2.3749510406    1.3541430814
     H    -2.2256851333    4.7102695059    0.8898468804
    Cl    -1.0904812105   -0.1632199640    1.9211316538
