65
-1.5777155429938721e+03 frame 40   xyz file generated by TeraChem
    Fe    -0.1136750442    0.0363260571    0.3823401909
     C     1.9478171059    0.3508189233    0.0537176257
     N     3.0864827107    0.5367506802   -0.0701635886
     C     4.9802904740    0.8811797095   -1.6324615383
     C     5.4306657686   -0.2526460256   -2.3191456623
     C     5.9169410387   -0.1382625112   -3.6359894235
     C     5.9539083418    1.1063634403   -4.2646522246
     C     5.5083756925    2.2394599006   -3.5817889299
     C     5.0224073452    2.1282019532   -2.2646595420
     H     5.4323978244   -1.2253586229   -1.8335453769
     H     6.2773560313   -1.0232424009   -4.1509117697
     H     5.5496329859    3.2153883349   -4.0551649753
     H     4.7051660899    3.0240651286   -1.7367270761
     H     6.3416971078    1.1962124811   -5.2742212249
     C     4.5169786826    0.7692527728   -0.1934575153
     H     4.7190222067    1.6852496797    0.3708152020
     H     5.0016196505   -0.0628912859    0.3267062256
     C    -0.7595910956   -1.4124718012   -1.0069841145
     N    -1.0919705616   -2.2223832964   -1.7683659221
     C    -2.9331396988   -3.1461425644   -3.1482029428
     C    -3.9289735288   -3.8246219040   -2.4350975576
     C    -5.2682017644   -3.7771605392   -2.8664876168
     C    -5.6115184873   -3.0554454614   -4.0097343853
     C    -4.6207247581   -2.3807264435   -4.7252470834
     C    -3.2803637196   -2.4256135530   -4.2954043675
     H    -3.6725738193   -4.4141356886   -1.5583165938
     H    -6.0276719118   -4.3199287112   -2.3125644978
     H    -4.8743116112   -1.8314205497   -5.6264817980
     H    -2.5167825713   -1.9170541554   -4.8786483209
     H    -6.6415687006   -3.0312225341   -4.3505531144
     C    -1.4826163928   -3.2505101103   -2.7201101863
     H    -0.7998885443   -3.1446858474   -3.5690954737
     H    -1.2699285800   -4.2063980165   -2.2311185690
     C    -1.1732628021    1.8394121043    0.1067221802
     N    -1.7551718846    2.8209448624   -0.1036837172
     C    -2.7651173421    4.8767071516    0.8417345695
     C    -3.9273461590    4.6662871301    1.5942793666
     C    -4.2081761070    5.4797602064    2.7084357398
     C    -3.3312887069    6.5029870696    3.0683864156
     C    -2.1737031103    6.7182701197    2.3180496910
     C    -1.8895159583    5.9052264733    1.2036175992
     H    -4.6334777421    3.8903378417    1.3092552629
     H    -5.1201786833    5.3154821505    3.2736325633
     H    -1.4942034727    7.5234539586    2.5791282766
     H    -0.9971996369    6.1009985070    0.6145459499
     H    -3.5551374769    7.1391184306    3.9186470906
     C    -2.4937619430    4.0399901115   -0.3931692677
     H    -1.8951872928    4.5842782868   -1.1303533549
     H    -3.4206612135    3.7192403070   -0.8790204898
     C    -0.4274462728   -0.5988946649    2.3709115730
     N    -0.6093112530   -0.9270974734    3.4688336128
     C    -0.0300494469   -2.5081611780    5.2870278246
     C    -0.5525746776   -3.8019949325    5.1823947459
     C     0.1903310022   -4.9064939055    5.6422231820
     C     1.4527452960   -4.7176695755    6.2058976613
     C     1.9754997577   -3.4283160079    6.3146152371
     C     1.2343666111   -2.3219012405    5.8569814981
     H    -1.5446756711   -3.9620858976    4.7678454563
     H    -0.2334173500   -5.9031631785    5.5696258306
     H     2.9483625239   -3.2687363067    6.7688580212
     H     1.6431506540   -1.3212945565    5.9734647457
     H     2.0189053556   -5.5681205431    6.5718122438
     C    -0.8556963245   -1.3143518898    4.8489285778
     H    -0.6392325213   -0.4261340210    5.4510044156
     H    -1.9292276774   -1.5165714688    4.9156306703
