14
-4.5821835743547348e+02 frame 101   xyz file generated by TeraChem
    Mn    -0.4777047481    0.0618669269   -0.6868533412
     C     2.5030840498    0.7064847814   -0.7686389117
     O     1.3944979345    0.3356223222   -0.3745234911
     H     3.3541030203    0.6602445165   -0.0783753149
     H     2.6526456583    1.0782642398   -1.7910070033
     C     0.2066942783   -2.8262925872   -1.5228768575
     O    -0.1180834097   -1.6362487309   -1.5344277777
     H     0.3572665578   -3.3444489630   -2.4774694067
     H     0.3400061207   -3.3729732454   -0.5800811186
     C    -0.9181439832    2.9506692353    0.2940726241
     O    -0.7789580780    1.9404603095   -0.3999359337
     H    -0.9444618815    2.8919887680    1.3901789865
     H    -1.0213226303    3.9240026441   -0.2003116952
     I    -3.0957622187   -0.5088484067   -0.6039856724
