49
-2.6889551811220413e+03 frame 72   xyz file generated by TeraChem
    Mn    -0.0347892884    0.0197094170    0.0222768722
     C     4.6274651656    0.8059815160    0.5544283730
     C     3.8061172256    1.6293523733   -0.2535313503
     C     2.4583452414    1.3676735553   -0.3544445213
     N     1.8482811101    0.3359834421    0.3058121386
     C     2.6367513803   -0.4658123672    1.0898107579
     C     3.9889206204   -0.2677453702    1.2306170478
     S     6.3321541841    1.0111169007    0.7760425534
     H     4.2151299334    2.4738539307   -0.7982852336
     H     1.8218453381    1.9982784504   -0.9655122456
     H     2.1448198499   -1.2831501092    1.6062163062
     H     4.5562866114   -0.9404618133    1.8663974091
     H     6.4796051804    2.0939005915   -0.0165096239
     C    -0.7669653022   -3.4307052602   -3.1638766343
     C     0.4421771234   -3.3214615559   -2.4335438649
     C     0.6160269394   -2.2846969288   -1.5450982115
     N    -0.3331071785   -1.3238681989   -1.3291234616
     C    -1.5064524981   -1.4222911404   -2.0301983257
     C    -1.7511213176   -2.4341110730   -2.9267066293
     S    -1.1260379587   -4.6748723399   -4.3124408521
     H     1.2452795499   -4.0400325744   -2.5596848122
     H     1.5401090825   -2.1938231507   -0.9842947360
     H    -2.2481059700   -0.6516209455   -1.8500122924
     H    -2.7015963585   -2.4553543681   -3.4509436606
     H     0.0402540381   -5.3468066041   -4.2089557322
     C    -2.1762980268    3.9374059985   -1.6071298897
     C    -1.5075723117    3.0537573520   -2.4931487498
     C    -0.9198704775    1.9078355686   -2.0081767113
     N    -0.9426357890    1.5675389086   -0.6827061529
     C    -1.5782584201    2.4206449154    0.1809097037
     C    -2.1925131647    3.5774872122   -0.2351496820
     S    -2.9644462072    5.4048811465   -2.0788629040
     H    -1.4496967838    3.2596421683   -3.5570714982
     H    -0.4095371170    1.2237254018   -2.6788290522
     H    -1.5907944601    2.1381121691    1.2283126503
     H    -2.6885324800    4.2040246721    0.4995257586
     H    -2.6990589981    5.3255245206   -3.4000778498
     C    -1.6951473577   -1.2555204838    4.2807057722
     C    -2.2044416921   -1.8059401908    3.0779714037
     C    -1.6707839624   -1.4234578333    1.8688886290
     N    -0.6430287197   -0.5263972822    1.7616169553
     C    -0.1450072033    0.0122252610    2.9193971573
     C    -0.6344861445   -0.3179337096    4.1594757225
     S    -2.2653578200   -1.6399471644    5.8684442119
     H    -3.0109737728   -2.5317130247    3.0863752455
     H    -2.0502610976   -1.8422336013    0.9425317691
     H     0.6649056757    0.7261392132    2.8149806614
     H    -0.1981800701    0.1450655851    5.0392061773
     H    -3.2180456964   -2.5228799588    5.5006444934
