25
-6.1637108457152408e+02 frame 69   xyz file generated by TeraChem
    Cr    -0.3438222242    0.1436809392   -0.4878085276
     C     2.7264753756    0.1817590853   -0.3725867298
     N     1.5602420469    0.1615572866   -0.3992059386
     C     4.1670678999    0.2089931900   -0.3494359027
     H     4.5151475482    0.5205068939    0.6462319908
     H     4.5339576495    0.9244537317   -1.1002797617
     H     4.5615245634   -0.7914312054   -0.5778182080
     C    -0.8214535431   -2.5174477720   -2.0570464513
     N    -0.6008535508   -1.5614656582   -1.4220370903
     C    -1.0992477057   -3.6898206537   -2.8464962296
     H    -0.1765947575   -4.2721378330   -2.9835658600
     H    -1.4887590341   -3.3897317463   -3.8302978979
     H    -1.8481936386   -4.3124437536   -2.3357877986
     C    -0.9177059417    3.2042302659   -0.1904141991
     N    -0.6626094077    2.0648619485   -0.2390910889
     C    -1.2377371760    4.6078385461   -0.1389046966
     H    -0.8155369525    5.1161624694   -1.0181024599
     H    -0.8166957358    5.0516630876    0.7746543429
     H    -2.3297331151    4.7391014816   -0.1372609087
     C    -1.1961372197   -0.7812699113    2.3166322031
     N    -0.8541101592   -0.4320758616    1.2574269425
     C    -1.6290897193   -1.2114516091    3.6221978148
     H    -2.7283709782   -1.2480727040    3.6504309861
     H    -1.2711849132   -0.5041728947    4.3841281221
     H    -1.2286315687   -2.2130260673    3.8354138284
