65
-2.0253407642585571e+03 frame 59   xyz file generated by TeraChem
    Fe     0.2230044135   -0.2313437670   -0.2702604578
     N    -0.7156565856   -1.4945199148   -1.6010554617
     N    -1.0404584336   -1.1696140463    1.0605366672
     C    -0.4808222872   -1.6372855575   -2.9180290403
     H     0.2641999186   -0.9777767945   -3.3525714873
     C    -1.1411097022   -2.5785040086   -3.6977378537
     H    -0.9026386355   -2.6583778784   -4.7532613871
     C    -2.0926724449   -3.4135695531   -3.1044751173
     C    -2.3428298903   -3.2477213457   -1.7340484869
     H    -3.0600035405   -3.8930753014   -1.2491650054
     C    -2.7941066685   -2.7963003936    1.1935639952
     H    -3.4397178575   -3.5132440972    0.7086857616
     C    -2.9597972799   -2.5461753513    2.5640150416
     C    -2.1244227576   -1.5948656766    3.1572727094
     H    -2.2041529460   -1.3564310102    4.2128187985
     C    -1.1830792651   -0.9347957813    2.3775351578
     H    -0.5233473366   -0.1899618764    2.8120674269
     C    -1.6429584873   -2.2932657222   -1.0013891836
     C    -1.8394860341   -2.0966705363    0.4608827878
     C    -4.0224096330   -3.2647903654    3.3542671376
     C    -2.8114731593   -4.4761285610   -3.8946246967
     C    -2.6650993766   -5.8786115573   -3.2619099961
     H    -3.8875740173   -4.2511423330   -3.9315017894
     H    -2.4584874115   -4.4841163412   -4.9315317865
     C    -5.4248955538   -3.1187000580    2.7215168771
     H    -4.0304678065   -2.9115058193    4.3910761273
     H    -3.7973513364   -4.3408677007    3.3914894079
     O    -5.5993494489   -2.7678462777    1.5813352473
     O    -6.4571956112   -3.4433921775    3.5126153196
     H    -6.1771548380   -3.7101232139    4.4052587974
     O    -2.3142470083   -6.0529882987   -2.1217169064
     O    -2.9895469419   -6.9109790903   -4.0530158010
     H    -3.2563841554   -6.6309903206   -4.9456428265
     N     2.2569465143   -0.0679846917    0.0269248723
     N     0.3864295121    1.8025979803   -0.5674335168
     C     3.1482523485   -1.0426413388    0.2842902883
     H     2.7463434196   -2.0450332621    0.3920160291
     C     4.5109735478   -0.8001698933    0.4008282765
     H     5.1851516818   -1.6275412806    0.5966458326
     C     4.9885904501    0.5054650970    0.2527298915
     C     4.0513786328    1.5180048626    0.0000610786
     H     4.3991526977    2.5309874933   -0.1366278915
     C     1.9724284627    3.5970078666   -0.5403815392
     H     2.9854171844    3.9447529627   -0.4036218587
     C     0.9599295842    4.5342300833   -0.7931407644
     C    -0.3457020488    4.0566404888   -0.9413331412
     H    -1.1730466993    4.7308390281   -1.1371949058
     C    -0.5882031547    2.6939208926   -0.8248322090
     H    -1.5905929387    2.2920245194   -0.9326299101
     C     2.6981595854    1.2134238816   -0.1178692165
     C     1.6678320968    2.2437853098   -0.4225329406
     C     1.2788559260    6.0041506882   -0.8782203201
     C     6.4585284938    0.8243223309    0.3378804238
     C     6.9695842204    1.5913047050   -0.9025579229
     H     6.6510356932    1.4634364242    1.2123349792
     H     7.0405271661   -0.0916106808    0.4872837133
     C     2.0454595871    6.5151176370    0.3624737679
     H     0.3629754593    6.5862077150   -1.0277576716
     H     1.9181347296    6.1966764781   -1.7525482418
     O     2.5860526124    5.7820844169    1.1524073588
     O     2.1099534566    7.8475215783    0.4961349728
     H     1.6318562447    8.3193155819   -0.2075838457
     O     6.2366358412    2.1332992925   -1.6916119426
     O     8.3019644820    1.6545681816   -1.0369550303
     H     8.7736970259    1.1754268489   -0.3339083143
