26
-1.9604525903489534e+03 frame 65   xyz file generated by TeraChem
    Fe    -0.1136175840    0.2656088042    0.0881395794
     N     1.7297089937    0.4915083682    0.3844800906
     C     2.9102653349    0.6497097768    0.5207328297
     S     4.4809311681    0.8570547926    0.7150501067
     N    -0.6131773119   -1.0937923456   -1.1084016084
     C    -0.9048991171   -1.9417679550   -1.9041119844
     S    -1.3006207491   -3.0775063929   -2.9534274897
     N    -1.0312784358    1.8897872757   -0.1414043099
     C    -1.5875876506    2.9330599879   -0.3400678735
     S    -2.3347105044    4.3205821694   -0.5930120361
     C    -0.8403271857   -0.4761219956    1.9748122846
     N    -1.2285599501   -0.8957121700    2.9866534529
     C    -0.9065124581   -2.7093774032    4.5996417869
     C    -1.3309980306   -3.9588934097    4.1345136512
     C    -0.6100546614   -5.1078166049    4.4587239585
     C     0.5368904846   -5.0125287762    5.2496527832
     C     0.9620001817   -3.7675012025    5.7170210358
     C     0.2421855871   -2.6174841266    5.3927145536
     H    -2.2242400462   -4.0345860485    3.5188902817
     H    -0.9448007972   -6.0752040028    4.0959838482
     H     1.8518685298   -3.6904865930    6.3348183960
     H     0.5741801240   -1.6482417321    5.7571791985
     H     1.0972589423   -5.9078646897    5.5030262191
     C    -1.6805017176   -1.4586716515    4.2325620709
     H    -1.5688745334   -0.6782465747    4.9915925113
     H    -2.7488616965   -1.6656028958    4.1150772314
