21
-1.3187397043301087e+03 frame 38   xyz file generated by TeraChem
    Co    -0.2351010470    0.1366387728    0.2401860153
     N     1.3922899288    0.9570472337    0.6478996688
     C     2.4481867857    1.4459269440    0.8952327724
     S     3.8758315139    2.1112398713    1.2305947635
     N    -1.8468963363   -0.7099531916   -0.1762293510
     C    -2.8497227908   -1.2784383076   -0.4687296088
     S    -4.2091247561   -2.0479142887   -0.8617817953
     C    -1.1008339179    2.5687929889   -1.1111535452
     N    -0.4021274049    1.2768939869   -1.3740976631
     H     0.5360250913    1.4647698370   -1.7319433230
     H    -0.9016087352    0.7599307972   -2.1000256288
     H    -0.5353535449    3.1290443051   -0.3642132151
     H    -2.1017350901    2.3557260031   -0.7308665395
     H    -1.1814417646    3.1647406564   -2.0246848439
     C    -0.7863171144   -0.4355778764    3.0492074636
     N    -0.0701358164   -0.9918629523    1.8642546059
     H    -0.4348709378   -1.9236976568    1.6573843236
     H     0.9212623018   -1.1025378439    2.0845564046
     H    -1.8460489311   -0.3430957818    2.8051491373
     H    -0.3767877810    0.5488506655    3.2856109248
     H    -0.6710299396   -1.0900165026    3.9178888680
