19
-9.6035221679417032e+02 frame 109   xyz file generated by TeraChem
    Cr     0.7361266073    0.4622230813    1.6634760319
     C     4.3629377596   -0.5086149427   -1.6121627186
     C     3.7927291254    0.7703567179   -1.5488146420
     C     2.7498690978    1.0019737029   -0.6616773090
     N     2.2577205812    0.0469258202    0.1478942151
     C     2.7969060841   -1.1855060596    0.0811081921
     C     3.8420178512   -1.5051615174   -0.7730508198
     S     5.6990728492   -0.9336575599   -2.6952274056
     H     4.1472382942    1.5800479546   -2.1787122445
     H     2.2662757614    1.9702259311   -0.5819444311
     H     2.3476622034   -1.9283230425    0.7338754622
     H     4.2389565928   -2.5151909595   -0.7847800864
     H     5.8328633899    0.2800740364   -3.2675559282
     O    -0.0373636987   -1.1905146170    1.4795223314
     H    -0.2716855137   -1.3751144475    0.5556844957
     O     0.2801664817    1.9341147517    0.7054131408
     H    -0.4042328960    2.4768268594    1.1292532482
     O     0.4820850333    0.7387303540    3.4368365282
     H    -0.2899713337    0.3043734236    3.8339875499
