49
-2.0769955792505907e+03 frame 64   xyz file generated by TeraChem
    Mn    -0.0602266335    0.0728959892    0.0531474601
     C     4.6106069491    0.8383258342    0.5806868736
     C     3.7917977972    1.7236403765   -0.1442315942
     C     2.4374615368    1.4549140174   -0.2482497243
     N     1.8625046257    0.3648347885    0.3338012765
     C     2.6555875302   -0.4935204727    1.0366344029
     C     4.0167931708   -0.2930446037    1.1771518891
     C     6.0107575123    1.0774503870    0.7097212965
     H     4.2076356093    2.6066863780   -0.6178743753
     H     1.7835814918    2.1206293722   -0.8015751002
     H     2.1729280742   -1.3556201429    1.4847571223
     H     4.6140825567   -1.0014796848    1.7417285142
     N     7.1531591466    1.2710203636    0.8166512928
     C    -0.7442765876   -3.3801661042   -3.1572635606
     C     0.5267110727   -3.1387617670   -2.6047491253
     C     0.6774199575   -2.1152384482   -1.6838374061
     N    -0.3600080939   -1.3236209579   -1.2961857463
     C    -1.5915804714   -1.5549228589   -1.8334773875
     C    -1.8195063360   -2.5627908337   -2.7525539359
     C    -0.9430322676   -4.4262342712   -4.1061907149
     H     1.3826576726   -3.7409107162   -2.8908262531
     H     1.6471831612   -1.9082073720   -1.2462029359
     H    -2.4019490079   -0.9088467633   -1.5113160509
     H    -2.8157515265   -2.7159553345   -3.1542331190
     N    -1.1075432300   -5.2786724865   -4.8809773869
     C    -2.3329073710    3.8809301894   -1.6074968073
     C    -1.7873476778    2.9153049513   -2.4956043484
     C    -1.1681925015    1.7943418684   -1.9971359514
     N    -1.0417241019    1.5521934784   -0.6520306653
     C    -1.5576979262    2.4869948352    0.2136626519
     C    -2.1937779525    3.6240248240   -0.2156425846
     S    -3.1440480353    5.3252590828   -2.0913539354
     H    -1.8505906334    3.0401134762   -3.5718651248
     H    -0.7518437412    1.0507136261   -2.6677019014
     H    -1.4550639922    2.2808267983    1.2742972880
     H    -2.5916306059    4.3155731336    0.5206922429
     H    -3.0393307645    5.1458064498   -3.4258025235
     C    -1.6413119439   -1.3294163291    4.2841690579
     C    -0.5891146511   -0.3815521016    4.1637440111
     C    -0.1247644994   -0.0247226353    2.9208252531
     N    -0.6386229914   -0.5437186688    1.7586993186
     C    -1.6620054195   -1.4529349840    1.8665084035
     C    -2.1682315743   -1.8599947779    3.0747635417
     S    -2.3132032996   -1.8778356202    5.7756200854
     H    -0.1344348122    0.0704304385    5.0394796854
     H     0.6804453323    0.6954680644    2.8204511903
     H    -2.0518344044   -1.8590847987    0.9399848661
     H    -2.9690053653   -2.5929897424    3.0905385636
     H    -1.5379836611   -1.1396089198    6.5990597062
