29
-5.0585023223795497e+02 frame 36   xyz file generated by TeraChem
    Fe     0.0108113473   -0.0357631744   -0.0025506770
     C     2.6783358627   -1.4190499712    0.6489394726
     N     2.0604893671   -0.0519618735    0.4156624992
     H     2.5773996333    0.4078430716   -0.3475864922
     H     2.2440708053    0.5354040129    1.2415807829
     H     2.6261343947   -2.0081224692   -0.2682663923
     H     2.1674513842   -1.9223894019    1.4720139628
     H     3.7332712643   -1.2858476643    0.9196464720
     C    -1.7520474977   -1.4494536200   -2.1075851862
     N    -0.3349727948   -1.3864246894   -1.5682790053
     H     0.3013645041   -1.1730376456   -2.3503610791
     H    -0.0611436392   -2.3318831894   -1.2636391363
     H    -2.0282527512   -0.4848536131   -2.5371817290
     H    -2.4439281404   -1.7428801297   -1.3152351165
     H    -1.7888354345   -2.2069716342   -2.9008814478
     C    -0.8175224499    2.8918880479    0.4410857239
     N    -0.4971310018    1.8839750502   -0.6476909353
     H     0.2735798320    2.2605989303   -1.2188179174
     H    -1.2973447296    1.8388358763   -1.2947093168
     H     0.0314594486    2.9879731760    1.1216129716
     H    -1.7214702510    2.5878375898    0.9716291307
     H    -0.9994977143    3.8672512044   -0.0279065603
     C    -0.5161558172   -0.3930165272    3.0109575393
     N    -1.1262542499   -0.6217081402    1.6402975108
     H    -2.0343525840   -0.1367301791    1.6058612641
     H    -1.3691787221   -1.6194365259    1.5566723927
     H    -0.3138129439    0.6706770186    3.1526218993
     H     0.3928234305   -0.9881548213    3.1148120770
     H    -1.2345179644   -0.7177804697    3.7737881376
