31
-2.3612230888100062e+03 frame 20   xyz file generated by TeraChem
    Cr     0.0606733571    0.0081069053    0.0434369334
     N     1.8631886955    0.2618226998    0.2980948394
     C     3.0604342307    0.1230581324    0.1502444947
     S     4.6223288747   -0.0158330861    0.0010298102
     N    -0.8433086377   -1.1244838949   -1.0897543785
     C    -1.0073925719   -1.9820688278   -1.9333466882
     S    -1.2800532223   -3.0872883313   -3.0223143985
     C    -1.5884004203    4.4027217428   -1.0888716890
     C    -2.3177881903    3.2432204451   -1.4057453408
     C    -1.8165955114    2.0030713048   -1.0531847244
     N    -0.6370534697    1.8466449083   -0.4056420905
     C     0.0722155093    2.9614740297   -0.0996932235
     C    -0.3626197289    4.2331547983   -0.4183591406
     S    -2.1087286744    6.0342901890   -1.4784648533
     H    -3.2673977361    3.2957470039   -1.9274301634
     H    -2.3563726959    1.0958894830   -1.3007710098
     H     1.0176979821    2.8040187654    0.4059419505
     H     0.2526511372    5.0854571648   -0.1498082496
     H    -3.2634183825    5.6951022020   -2.0870423119
     C    -1.6006371804   -1.1249572125    4.4332704597
     C    -2.3434982986   -1.4069596689    3.2732362131
     C    -1.8371165023   -1.0546311136    2.0351474187
     N    -0.6396090461   -0.4403692556    1.8811209386
     C     0.0826454803   -0.1683434191    2.9964689706
     C    -0.3565568815   -0.4885200110    4.2662856437
     S    -2.1260321607   -1.5184474871    6.0622814278
     H    -3.3079952656   -1.9008203098    3.3237895265
     H    -2.3879731053   -1.2760536729    1.1277486764
     H     1.0416734254    0.3114729273    2.8406229234
     H     0.2696178213   -0.2479395799    5.1189948369
     H    -3.2991641122   -2.0891183567    5.7205336328
