11
-1.3836609850920961e+03 frame 107   xyz file generated by TeraChem
    Cr    -0.5487906513   -0.1994371794    0.0525841737
     F     1.0812280700   -0.4651216584   -0.1907406872
     S    -1.5778423387   -1.2430463312   -1.9646577251
     H    -1.3539881502   -2.5470167602   -1.6665556390
     H    -0.5070700742   -1.1453752524   -2.7899233916
     S    -0.9645073141    2.1416012601   -0.3790999209
     H    -0.4144889453    2.2845634459   -1.6093676077
     H     0.0990792034    2.6618174129    0.2815509549
     S    -0.7622977819    0.0462291112    2.5450517091
     H    -1.9905033121   -0.4667987788    2.8019779939
     H    -0.0817417858   -1.0613512425    2.9285781041
