14
-3.2604064968237441e+02 frame 14   xyz file generated by TeraChem
    Co    -0.0271602667    0.0213895477   -0.0947025352
     N     2.0546458186    0.0759906367    0.1469359405
     H     2.5496618781    0.8497896701   -0.3182818178
     H     2.2320544896    0.1735420245    1.1573199243
     H     2.5288033237   -0.7918027449   -0.1402523181
     N    -0.4454689231   -1.3427109762   -1.6443928753
     H     0.2377747305   -1.3941840754   -2.4129761634
     H    -0.4941556747   -2.2838465809   -1.2268569082
     H    -1.3638216763   -1.1837430257   -2.0817103112
     N    -0.8853352967    1.8976599792   -0.4114155352
     H    -0.6967979703    2.5155440644    0.3907057704
     H    -0.5937538489    2.4072661334   -1.2576474619
     H    -1.9102628936    1.8057898914   -0.4594376897
     I    -0.8945421613   -0.8511947720    2.1553314530
