49
-1.2227139013806925e+03 frame 65   xyz file generated by TeraChem
    Co     0.4134543781   -0.4748538901   -0.5830553342
     O     0.1557652716   -2.1362050943   -1.3909574031
     C    -1.0026212047   -2.6642827653   -1.0349249464
     C    -1.7921924953   -1.8791550654   -0.1311852095
     C    -3.0407200643   -2.3567661017    0.3025891999
     C    -3.5314403805   -3.5962447208   -0.1315602069
     C    -4.9075325782   -4.0776591671    0.3670997939
     C    -4.9042513919   -4.1649637900    1.9121293617
     C    -6.0011652379   -3.0779648765   -0.0791414429
     C    -5.2864521284   -5.4675034392   -0.1802479676
     C    -2.7374423451   -4.3545824045   -1.0196013838
     C    -1.4936258650   -3.9033735683   -1.4677711955
     O    -1.2659435321   -0.7300658639    0.2324904382
     H    -3.6080346709   -1.7290660978    0.9851698283
     H    -4.1441691580   -4.8752053154    2.2580912828
     H    -5.8819386042   -4.5004460441    2.2853406626
     H    -4.6832167658   -3.1955968031    2.3699925791
     H    -6.0456372704   -3.0170321839   -1.1728896520
     H    -5.8001091008   -2.0706986612    0.2991384025
     H    -6.9895571110   -3.3883003482    0.2879238527
     H    -5.3451144229   -5.4701637243   -1.2746732654
     H    -6.2690178207   -5.7646700009    0.2076023613
     H    -4.5620648341   -6.2322455355    0.1225166042
     H    -3.0899143745   -5.3178457698   -1.3742578015
     H    -0.8945031870   -4.4987457621   -2.1525869677
     O     2.0927714650   -0.2184097957   -1.4002719853
     C     2.6118164009    0.9353956913   -1.0449630781
     C     1.8225617682    1.7235186037   -0.1432842118
     C     2.2909442156    2.9710903194    0.2902500934
     C     3.5309891999    3.4687869519   -0.1408615968
     C     4.0035361468    4.8469899370    0.3591743503
     C     2.9982138572    5.9352334064   -0.0878716136
     C     4.0884765911    4.8433362337    1.9044393120
     C     5.3919426830    5.2340800470   -0.1860654427
     C     4.2960035682    2.6785842462   -1.0266633665
     C     3.8530163585    1.4343386576   -1.4756288932
     O     0.6685583040    1.1892665074    0.2199966542
     H     1.6591563466    3.5362878718    0.9708122774
     H     2.9384992192    5.9798942844   -1.1816583770
     H     3.3028001938    6.9250825242    0.2800736580
     H     1.9916019832    5.7286529342    0.2891104793
     H     4.8027569956    4.0874001964    2.2511125247
     H     3.1197500836    4.6161852319    2.3606364498
     H     4.4174638174    5.8228549977    2.2786071541
     H     6.1603165032    4.5137223947    0.1170574683
     H     5.6834458699    6.2179446805    0.2028240261
     H     5.3956071029    5.2935778507   -1.2804359920
     H     5.2583286634    3.0363224285   -1.3786558419
     H     4.4524044784    0.8374339273   -2.1588189209
