53
-1.4209315586101218e+03 frame 50   xyz file generated by TeraChem
    Fe     0.0083210756    0.0498668315   -0.0266117230
     C     2.0795951255    0.1732948407   -0.0443588411
     N     3.2442016474    0.2316576472   -0.0479534366
     C     4.6264490838    0.2938498202   -0.0472127727
     C     5.2693563760    1.2011123562   -0.9050591972
     C     6.6586854338    1.2504789087   -0.8957678880
     C     7.3877840432    0.4106384696   -0.0462965836
     C     6.7319946223   -0.4879923376    0.8027055560
     C     5.3436631506   -0.5559234262    0.8109696509
     H     4.6857593556    1.8426744214   -1.5567113601
     H     7.1749221956    1.9439198178   -1.5514465427
     H     7.3043837199   -1.1363058730    1.4579967011
     H     4.8153342194   -1.2462111529    1.4598909108
     H     8.4723174697    0.4564078465   -0.0462601037
     C    -0.5769467580   -1.3139400206   -1.4737417824
     N    -0.8967112687   -2.0869853482   -2.2862218593
     C    -1.2727117487   -3.0057170901   -3.2501681662
     C    -1.4343858835   -4.3512830375   -2.8811739153
     C    -1.8066762782   -5.2664582614   -3.8589562517
     C    -2.0124200856   -4.8438212205   -5.1771205992
     C    -1.8475082617   -3.4992677645   -5.5287173501
     C    -1.4760194531   -2.5654676154   -4.5683004099
     H    -1.2679407093   -4.6578331257   -1.8540041793
     H    -1.9360611046   -6.3108183287   -3.5945380915
     H    -2.0083420425   -3.1799598017   -6.5531612834
     H    -1.3414258931   -1.5189124153   -4.8201584000
     H    -2.3021612384   -5.5657293178   -5.9342182063
     C    -0.8604908955    1.9012519777   -0.3684778528
     N    -1.3479388008    2.9436390311   -0.5571453653
     C    -1.9233613041    4.1822435486   -0.7788357714
     C    -3.1707237273    4.2493273870   -1.4208017883
     C    -3.7386989341    5.4999046587   -1.6353213505
     C    -3.0724050636    6.6572093952   -1.2166379284
     C    -1.8298957139    6.5732666582   -0.5781725341
     C    -1.2419271063    5.3340985441   -0.3524716042
     H    -3.6709316124    3.3399576261   -1.7365037475
     H    -4.7020493468    5.5738254530   -2.1291250808
     H    -1.3199720862    7.4752330329   -0.2560265942
     H    -0.2801676953    5.2465555944    0.1416765164
     H    -3.5238084424    7.6293299201   -1.3885595036
     C    -0.6398423118   -0.6159441646    1.8326346204
     N    -1.0109784000   -0.9895167043    2.8730725192
     C    -1.4548874930   -1.4341247121    4.1061670879
     C    -2.6178906886   -2.2190612909    4.1676024146
     C    -3.0552288438   -2.6594817585    5.4114805600
     C    -2.3439079564   -2.3214011940    6.5682180893
     C    -1.1872819870   -1.5375277240    6.4902496381
     C    -0.7302940637   -1.0854559393    5.2575721715
     H    -3.1553990379   -2.4687502245    3.2590066692
     H    -3.9517227118   -3.2668345746    5.4803630183
     H    -0.6420474676   -1.2785303107    7.3918878912
     H     0.1629838950   -0.4754424728    5.1754883864
     H    -2.6931231311   -2.6697968653    7.5351632185
