17
-3.2907487455914281e+02 frame 68   xyz file generated by TeraChem
    Mn    -0.0306985977   -0.0300011139    0.0000635630
     N     1.7231641623   -1.1390891177   -0.0002442691
     H     2.5871764338   -0.5685324877    0.0006362559
     H     1.8093706992   -1.7669666549    0.8158718407
     H     1.8101219841   -1.7656840115   -0.8172590317
     N     0.1126779223    0.2014766203   -2.0564243524
     H     1.0858609722    0.2779103450   -2.3957069602
     H    -0.3081571442   -0.5721880675   -2.6005674455
     H    -0.3453541097    1.0597544471   -2.4061584475
     N    -1.9533160872    0.7256599478   -0.0001755621
     H    -1.9988292106    1.7602139342   -0.0000911295
     H    -2.5166107225    0.4307459709   -0.8156803666
     H    -2.5169706322    0.4305939856    0.8150225436
     N     0.1118946394    0.1990895038    2.0567695744
     H     1.0849094135    0.2747061197    2.3967460491
     H    -0.3459591651    1.0571429813    2.4073242248
     H    -0.3095945423   -0.5749896078    2.5998318438
