38
-2.0542745591177336e+03 frame 58   xyz file generated by TeraChem
    Mn    -0.0148860339   -0.0631547776   -0.0167787220
     C     4.6939920993   -0.6191313156   -0.4729853798
     C     3.9822576582    0.3251940562   -1.2466167523
     C     2.6174868599    0.4444622168   -1.0952114362
     N     1.9016566875   -0.3190002277   -0.2232296756
     C     2.5819981439   -1.2340534069    0.5288775865
     C     3.9445935909   -1.4078904558    0.4290835082
     S     6.4156575897   -0.8682102983   -0.5546699569
     H     4.4884998011    0.9688916065   -1.9579784484
     H     2.0616877834    1.1722551557   -1.6762535835
     H     1.9962683492   -1.8237448519    1.2236360333
     H     4.4259026380   -2.1503641616    1.0574410701
     H     6.6744975239    0.0656609278   -1.4934113389
     C    -2.2184221764   -2.5372432337   -3.3925298220
     C    -0.8349362423   -2.7063258712   -3.1611201523
     C    -0.1939632880   -1.9174459257   -2.2303994044
     N    -0.8397277004   -0.9540904022   -1.5147226734
     C    -2.1772144079   -0.7850073866   -1.7321877298
     C    -2.8829086306   -1.5380081878   -2.6415650963
     S    -3.1532781328   -3.4699063969   -4.5244553633
     H    -0.2592684918   -3.4517485247   -3.6993622766
     H     0.8651981106   -2.0386126247   -2.0357329707
     H    -2.6749635673   -0.0286234823   -1.1335590000
     H    -3.9467607169   -1.3616511930   -2.7627410519
     H    -2.1480267948   -4.2537143972   -4.9668142053
     C    -0.7738906343    4.6119561367   -0.5195516876
     C    -0.9471012874    3.7308239253   -1.6106209539
     C    -0.7314927842    2.3797171516   -1.4405346918
     N    -0.3516625666    1.8370376093   -0.2506908682
     C    -0.1758616981    2.6832218842    0.8059979115
     C    -0.3729222130    4.0423646835    0.7105495479
     S    -1.0193548421    6.3341785029   -0.5887377407
     H    -1.2505302152    4.0931933927   -2.5871236336
     H    -0.8589025419    1.6914499502   -2.2686852133
     H     0.1144919945    2.2274724104    1.7454412020
     H    -0.2243031466    4.6587706690    1.5911818816
     H    -1.3788006006    6.4002148398   -1.8875808110
     I    -0.8976995780   -0.8838380281    2.2031421029
