65
-2.0058505136646356e+03 frame 55   xyz file generated by TeraChem
    Mn     0.2878714857   -0.3085114206   -0.4036222149
     N    -0.6198512703   -1.7100429668   -1.7114774855
     N    -1.1141531371   -1.2145704501    0.9046690946
     C    -0.3262199873   -1.9231286189   -3.0074151190
     H     0.4518990570   -1.3007286600   -3.4399494910
     C    -0.9648016983   -2.8908814116   -3.7727631447
     H    -0.6749185486   -3.0285716214   -4.8093195575
     C    -1.9635998414   -3.6750709094   -3.1886439666
     C    -2.2801690215   -3.4324054375   -1.8443315581
     H    -3.0441948952   -4.0294244657   -1.3693254365
     C    -2.8382138727   -2.8730296926    1.0384649695
     H    -3.4362371445   -3.6365072010    0.5638417920
     C    -3.0800858952   -2.5559191206    2.3827956875
     C    -2.2945999522   -1.5578558068    2.9664518554
     H    -2.4316217055   -1.2676349312    4.0030034591
     C    -1.3264673417   -0.9204423332    2.2006305100
     H    -0.7031320183   -0.1428455856    2.6327595572
     C    -1.5932242702   -2.4595766357   -1.1223881599
     C    -1.8648562976   -2.1873045748    0.3160528602
     C    -4.1713643158   -3.2539341022    3.1520301029
     C    -2.6629550362   -4.7659092779   -3.9572788419
     C    -2.5464888401   -6.1383819466   -3.2558422536
     H    -3.7360551010   -4.5389033810   -4.0387537116
     H    -2.2760384671   -4.8202697741   -4.9805144663
     C    -5.5439268045   -3.1367722722    2.4508819135
     H    -4.2252241613   -2.8663265099    4.1750326699
     H    -3.9451848428   -4.3271601342    3.2341453790
     O    -5.6646730917   -2.8498498911    1.2860559427
     O    -6.6131984212   -3.4122148243    3.2113758790
     H    -6.3749533402   -3.6305913731    4.1288629236
     O    -2.2594517321   -6.2589977181   -2.0910295596
     O    -2.8226775245   -7.2076792978   -4.0160250288
     H    -3.0410407448   -6.9695325708   -4.9335399382
     N     2.3781131737   -0.1002817092   -0.1154386224
     N     0.4968913411    1.7815776910   -0.6926634393
     C     3.2732044072   -1.0655250380    0.1652642556
     H     2.8819204704   -2.0741169080    0.2590901569
     C     4.6301785023   -0.8114855855    0.3198153246
     H     5.3067764894   -1.6334932906    0.5294458164
     C     5.0976075451    0.4997048072    0.1946000913
     C     4.1569020057    1.5034785190   -0.0764825476
     H     4.4968032531    2.5224934477   -0.1841297594
     C     2.1014926698    3.5596096837   -0.7329409303
     H     3.1206929996    3.8990714748   -0.6257353401
     C     1.0980821519    4.5006601780   -1.0041681928
     C    -0.2133742256    4.0337846692   -1.1287326796
     H    -1.0351380058    4.7106663585   -1.3384031881
     C    -0.4680171827    2.6770080650   -0.9734461708
     H    -1.4768297126    2.2861685431   -1.0667863284
     C     2.8108728066    1.1858499899   -0.2409610875
     C     1.7832580982    2.2138107187   -0.5677363475
     C     1.4350191513    5.9633702320   -1.1321409203
     C     6.5605478171    0.8360024880    0.3214646207
     C     7.0940943584    1.6070717562   -0.9068759511
     H     6.7216753283    1.4778108068    1.2002295250
     H     7.1501117313   -0.0723828024    0.4867950432
     C     2.2078026128    6.4972864181    0.0949359515
     H     0.5267466757    6.5533030426   -1.2967883738
     H     2.0758581119    6.1236511437   -2.0117736759
     O     2.7275200950    5.7786340043    0.9116100120
     O     2.3010277595    7.8317950675    0.1858775980
     H     1.8369899094    8.2904325777   -0.5357388926
     O     6.3751616267    2.1259718900   -1.7238204536
     O     8.4285902981    1.6997509499   -0.9986232813
     H     8.8874437719    1.2364775527   -0.2766521622
