23
-5.6468438252682017e+02 frame 103   xyz file generated by TeraChem
    Co     0.0086252432   -0.2192000446   -0.0888644059
     C     2.7255110959   -0.1650335567   -1.0435533635
     O     1.8669782350    0.2201727147   -0.2240878535
     H     2.4973887431   -0.8557897216   -1.8690247331
     H     3.7509174902    0.2134932941   -0.9178287725
     C    -2.6534423632   -1.5823117357   -0.8846048049
     O    -1.5719597633   -0.9764485127   -0.7883250135
     H    -3.3089866398   -1.7231432198   -0.0131447002
     H    -2.9470127144   -1.9771679033   -1.8690239679
     C    -1.5561118019    2.2694097533    0.4367666932
     N    -0.4210425309    1.6503836334   -0.3226100916
     H     0.4500575524    2.1753318552   -0.1594823136
     H    -0.6098946180    1.7160096930   -1.3361358456
     H    -1.3058003824    2.3541448174    1.4954668765
     H    -2.4738169045    1.7035836665    0.2726956802
     H    -1.6959891580    3.2864707505    0.0359161265
     C     0.4646439600   -1.6472060565    2.2539753635
     N     0.2213364424   -0.2355369039    1.8097764387
     H     1.0246809813    0.3619120061    2.0507154701
     H    -0.6104367291    0.1559368671    2.2718830269
     H     1.3615060042   -2.0487054514    1.7730437943
     H    -0.4167683586   -2.2650593317    2.0675897981
     H     0.6501324471   -1.6301340135    3.3421768901
