13
-2.1093987558091017e+03 frame 71   xyz file generated by TeraChem
    Co    -0.0450970042    0.4860956024   -0.0669984372
     S     2.1363506648    1.0339631178    0.3447279191
     C     3.0165211495   -0.3752907448    0.6772072584
     N     3.7026412307   -1.2924625888    0.9143384535
     S    -2.1146567531    0.2236129526   -0.9994917811
     C    -2.4968505960   -1.4266613981   -1.0556295936
     N    -2.8425928811   -2.5411900012   -1.1359144084
     N    -0.3220156111    2.2973890030   -0.3028326724
     C    -0.5070172269    3.4622425292   -0.4350618376
     S    -0.7580216947    5.0489453136   -0.6154487667
     N     0.1867558191   -1.2750305206    0.2912645397
     C     0.3166538831   -2.4177752354    0.5906913550
     S     0.4911959462   -3.9639673385    1.0022579297
