47
-1.8925622874879869e+03 frame 68   xyz file generated by TeraChem
    Mn    -0.0335655601    0.0773107495    0.0684654326
     C     4.6197504174    0.8304068690    0.5925869672
     C     3.8120438098    1.7194562774   -0.1210477896
     C     2.4528711180    1.4590176102   -0.2278069631
     N     1.8812621921    0.3656333393    0.3493214723
     C     2.6700281119   -0.5001242246    1.0461140161
     C     4.0346203033   -0.2970984325    1.1819733058
     H     5.6867613127    1.0101566227    0.6882961905
     H     4.2246079561    2.6059628406   -0.5915714920
     H     1.7948693921    2.1265122522   -0.7740612221
     H     2.1820117730   -1.3626131410    1.4880257541
     H     4.6279989075   -1.0125515912    1.7422192179
     C    -0.7303538020   -3.3711454733   -3.1164806900
     C     0.5301375246   -3.1568701755   -2.5534627097
     C     0.6943363669   -2.1275998532   -1.6362997558
     N    -0.3351181390   -1.3150425958   -1.2745597711
     C    -1.5633634075   -1.5220766475   -1.8271285242
     C    -1.7914816685   -2.5374402282   -2.7428564525
     H    -0.8850970516   -4.1718812893   -3.8340113225
     H     1.3807409467   -3.7764142741   -2.8183000717
     H     1.6592856075   -1.9320034966   -1.1827055185
     H    -2.3617110150   -0.8530869799   -1.5215275188
     H    -2.7857374634   -2.6700564660   -3.1571868920
     C    -2.2559042186    3.9107400584   -1.6073501355
     C    -1.6924040229    2.9518856737   -2.4905471336
     C    -1.0870816530    1.8250633533   -1.9871838776
     N    -0.9925581737    1.5724680902   -0.6423886002
     C    -1.5265606532    2.4995515732    0.2188167418
     C    -2.1505270840    3.6419448524   -0.2156335325
     S    -3.0522615381    5.3623579569   -2.0989340440
     H    -1.7308769342    3.0858121111   -3.5668130053
     H    -0.6581366242    1.0848466299   -2.6539364599
     H    -1.4483150139    2.2841408073    1.2796778050
     H    -2.5639692257    4.3281176317    0.5170265742
     H    -2.9166746978    5.1921894003   -3.4316220401
     C    -1.6338590061   -1.3116642942    4.2977089761
     C    -0.5739539719   -0.3730629640    4.1805013743
     C    -0.1046224806   -0.0182050058    2.9385304308
     N    -0.6215749306   -0.5311300403    1.7761481139
     C    -1.6512320317   -1.4324610748    1.8803852146
     C    -2.1629121264   -1.8368196849    3.0876753675
     S    -2.3134321564   -1.8555235990    5.7889030532
     H    -0.1168854910    0.0736534054    5.0576224425
     H     0.7072967978    0.6945605019    2.8395394492
     H    -2.0422925242   -1.8339367822    0.9521976546
     H    -2.9696598468   -2.5631747840    3.1014556901
     H    -1.5330874892   -1.1240804539    6.6132800722
