25
-7.3575071271890499e+02 frame 54   xyz file generated by TeraChem
    Fe     0.0974236268    0.1137085035   -0.1843114380
     O     2.0506187567   -0.2807510617   -0.3678655377
     C     3.0285486278    0.3637961407    0.4254838806
     C     4.0742271244    0.7046586424   -0.3574664208
     C     3.7731230207    0.2847479011   -1.7071233900
     C     2.5601190071   -0.3009108369   -1.6947410152
     H     2.8223113482    0.3855249508    1.4856521242
     H     4.9894192217    1.1738641513   -0.0196389604
     H     1.9427064123   -0.8074496446   -2.4203823483
     H     4.4153953444    0.3907266249   -2.5716682811
     O    -0.3899782480   -1.5364393479   -1.1870741914
     C     0.0659336546   -2.8156622762   -0.7682025099
     C    -0.8521467158   -3.7383534016   -1.1109678963
     C    -1.9422209234   -3.0555406277   -1.7699405563
     C    -1.6503835564   -1.7391603592   -1.7988375323
     H     1.0383725465   -2.8313588653   -0.3011007337
     H    -0.7703348090   -4.8037496497   -0.9402076081
     H    -2.1026377447   -0.8623676632   -2.2380625108
     H    -2.8244422393   -3.5153885477   -2.1962445000
     O     0.4422744744    2.0314048995    0.1292064723
     H     1.3488751778    2.3920667055    0.0623490477
     H    -0.1897465696    2.7750240070    0.1254650832
     O    -1.6509301925    0.1218032408    0.7236162242
     H    -2.2815661191   -0.6223455667    0.6601462778
     H    -1.9622923817    0.7244940661    1.4253909096
