16
-9.2034683287216455e+02 frame 87   xyz file generated by TeraChem
    Cr    -0.1014460777    0.0621717073    0.0893551809
     N     1.0795789364    1.2494875674    1.1428393093
     C     1.7439105430    1.9590044375    1.8286436052
     S     2.6463807336    2.9255643082    2.7583663473
     C    -2.2881234628   -1.5703408408   -1.4603034001
     O    -1.1749644226   -1.2073045310   -1.0814230817
     H    -3.2073955793   -1.1136106014   -1.0679239059
     H    -2.3667480561   -2.3701184724   -2.2075706257
     C    -0.1539754274    2.2856060656   -2.0885065532
     O    -0.5824937019    1.4794457256   -1.2622363653
     H    -0.8618409072    2.9309591819   -2.6234129762
     H     0.9191497262    2.3742533914   -2.3057063219
     C     0.4562632854   -2.2718620680    2.0800282937
     O    -0.1275097060   -1.3415187102    1.5236628986
     H    -0.0331958829   -2.7869821972    2.9160191216
     H     1.4548714038   -2.5999975634    1.7603449540
