16
-2.1312137990761244e+03 frame 27   xyz file generated by TeraChem
    Mn     0.0396702447    0.1009521354    0.1841502482
     C     4.9239818406   -0.1546435413   -0.1144259841
     C     4.2050898200    0.7674010564   -0.8829679525
     C     2.8229169595    0.8250955199   -0.7445004492
     N     2.1437343100    0.0270346603    0.0958890906
     C     2.8342545448   -0.8495809582    0.8452355118
     C     4.2161580347   -0.9756973919    0.7713962119
     S     6.6954112809   -0.3271889497   -0.2049098732
     H     4.7017055982    1.4383207505   -1.5771945231
     H     2.2207680283    1.5400074235   -1.2976703106
     H     2.2410808921   -1.4446185506    1.5331072088
     H     4.7252759643   -1.7005009495    1.3989910438
     H     6.8994472589    0.6268751993   -1.1363233139
    Cl    -0.5978462658   -1.4926032015   -1.4074664294
    Cl    -0.2872223058    2.3874021801   -0.2625818361
    Cl    -0.2851426099   -0.3485321587    2.4662996871
