9
-1.1500996429424531e+03 frame 19   xyz file generated by TeraChem
    Co     0.1810802324   -0.1513277761   -0.4477899198
     S     2.3681265639   -0.4821372784   -0.7767773356
     C     2.8313060603   -0.4216018199    0.8531386598
     N     3.1874044417   -0.3968328304    1.9687399450
     S    -0.2193186217   -0.4392008688   -2.6420646523
     C    -0.3163113321   -2.1279719401   -2.6899158900
     N    -0.3880005082   -3.2924677380   -2.7925620240
     I     0.1643028771    2.3929485602   -0.4872499266
     I    -1.9002622410   -0.7756003782    0.8992775381
