21
-1.5040159279976090e+03 frame 60   xyz file generated by TeraChem
    Fe    -0.2935759349    0.3637759295    0.2604277415
     O     1.9035012641   -0.1570092991    0.1304597492
     C     2.7318951424   -0.6156737788    1.1392115459
     C     4.0023308572   -0.6913395603    0.6769290157
     C     3.9783569360   -0.2533452544   -0.6943712636
     C     2.6932178384    0.0599795945   -0.9830535963
     H     2.2349095788   -0.8243501029    2.0731976477
     H     4.8641036420   -1.0189786461    1.2410578176
     H     2.1772545679    0.4456835743   -1.8476359031
     H     4.8184357326   -0.1807891603   -1.3706238754
     O    -0.5850781091   -1.0176207523   -1.4762509555
     C    -0.2399360466   -2.3560637518   -1.5144614008
     C    -0.7786903503   -2.9297617344   -2.6157622564
     C    -1.5041671831   -1.8987645984   -3.3115625764
     C    -1.3656798173   -0.7614814865   -2.5905076326
     H     0.3616377492   -2.7017721612   -0.6891942937
     H    -0.6772114278   -3.9654742618   -2.9076740582
     H    -1.6963722768    0.2605827444   -2.6873953794
     H    -2.0556909492   -2.0014799021   -4.2354070567
    Cl    -0.5896564364    2.3151936549   -0.7792451620
    Cl    -0.6726845329   -0.6838553343    2.1939227712
