10
-5.5576740878623048e+02 frame 24   xyz file generated by TeraChem
    Fe     0.0580732804    0.2043465081   -0.4280770490
     C     3.0861716606   -0.0875416123    0.1044561175
     N     1.9489895457    0.0197813931   -0.0999200440
     C     4.5138292452   -0.2233005048    0.3620250959
     H     4.6933679778   -0.2930351537    1.4429863536
     H     5.0486932614    0.6502506622   -0.0336114368
     H     4.8970599680   -1.1294468209   -0.1252071533
     F     0.0487819391   -1.0238857297   -1.6570800672
     F    -0.2028159599    1.8892607964   -0.6763017842
     F    -0.7026732625   -0.0063550065    1.1081147319
