31
-8.8934889316855197e+02 frame 111   xyz file generated by TeraChem
    Fe     0.2208297197    0.0502408601   -0.2594455198
     O     2.2027224554    0.5417104093   -0.1292211627
     C     2.5139001262    1.2384676911    1.0627778784
     C     3.5570115193    0.6301807665    1.6696787355
     C     3.9421226034   -0.4983810329    0.8534934533
     C     3.1159575230   -0.5323474934   -0.2129122103
     H     1.9597667178    2.1525129808    1.2204219983
     H     4.0424638754    0.9633620561    2.5780893992
     H     3.0419625861   -1.1360542369   -1.1056721786
     H     4.7670625332   -1.1739618252    1.0385225747
     O    -1.0142073647   -1.1813506764   -1.1935950658
     C    -1.1251083596   -2.5751479504   -0.9446372401
     C    -1.8648468219   -3.1350865984   -1.9176439393
     C    -2.2526144666   -2.0891264986   -2.8371450069
     C    -1.7318329195   -0.9319704876   -2.3926266065
     H    -0.5984660677   -2.9392232496   -0.0773844488
     H    -2.1199835970   -4.1839081805   -1.9917974913
     H    -1.7510436420    0.0942295252   -2.7222109340
     H    -2.8577365603   -2.2072428521   -3.7261931027
     O    -0.3072812783    1.7813227387   -1.0859302970
     C    -1.6105794187    2.3328526814   -1.1279813993
     C    -1.5878448944    3.4460123739   -1.8849127106
     C    -0.2358793057    3.6301626875   -2.3615767827
     C     0.5163941127    2.6274949583   -1.8733845217
     H    -2.3599039994    1.8119640412   -0.5515225676
     H    -2.4340590159    4.0898519355   -2.0849983070
     H     1.5508521662    2.3336951599   -1.9501210147
     H     0.1180582304    4.4317391737   -2.9961728633
     O     0.2191348007   -0.9411537302    1.4671694671
     H    -0.5632527176   -1.3191836869    1.9120024568
     H     0.8966504103   -0.7606613191    2.1483106361
