13
-1.9589249461859672e+03 frame 75   xyz file generated by TeraChem
    Cr    -0.2310570260   -0.4548459743    0.1334299812
     N     1.6178647015   -0.2843609301    0.3477127292
     C     2.7205559038   -0.0379110517   -0.0759805133
     S     4.2042994020    0.2714267174   -0.5474020065
     N    -0.6914796746   -1.6992912521   -1.1733947353
     C    -0.7724520070   -2.1703362355   -2.2818556183
     S    -0.9160389484   -2.8486093902   -3.7075536321
     N    -1.1369465169    1.1440641325   -0.2020522278
     C    -1.4262252932    2.0748019549   -0.9132339540
     S    -1.8579603442    3.3346755352   -1.7773203165
     S    -0.6258023341   -0.1456775029    2.8369542054
     H     0.6631449247    0.1399781767    3.1141715208
     H    -0.9834134632    1.1490665463    2.7137097759
