9
-5.9680859299316580e+02 frame 33   xyz file generated by TeraChem
    Co     0.0105028292   -0.0108035842   -0.0105741686
     C     1.6631192853    0.8610904951    0.8704113559
     O     2.5627092496    1.3304164128    1.3438673211
     C    -1.6612832070   -0.8637749934   -0.8733104783
     O    -2.5697683204   -1.3235208457   -1.3392520576
     C     0.0062959170    1.4629813758   -1.4579533723
     O     0.0045794549    2.2610947768   -2.2432073207
     C    -0.0040919903   -1.4646991915    1.4573896430
     O    -0.0121628719   -2.2528337957    2.2526052314
