37
-1.0053590371974776e+03 frame 284   xyz file generated by TeraChem
    Cr    -0.0153830755   -0.0557914496    0.0757576824
     O     1.8450326243    0.4911241225   -0.6497178372
     C     3.1125353161    0.0368614443   -0.2077567648
     C     4.0694524743    0.4870168812   -1.0577866406
     C     3.4218421343    1.2496357596   -2.0842999866
     C     2.0892746723    1.2428187128   -1.8284270820
     H     3.1213733088   -0.5477322437    0.7008462776
     H     5.1329901184    0.3030290953   -0.9614436770
     H     1.2230705607    1.6717651398   -2.3111857730
     H     3.9002008211    1.7502117786   -2.9178983865
     O     0.2257016353   -1.9745748221   -0.6230642343
     C     0.9026350152   -3.0318097402    0.0474403387
     C     1.3011454980   -3.9504055623   -0.8614720216
     C     0.8863527133   -3.4957959854   -2.1618237823
     C     0.2498425976   -2.3134864897   -2.0051515047
     H     0.9245236601   -2.9654160454    1.1255506668
     H     1.8195917083   -4.8748958302   -0.6367184743
     H    -0.2567213957   -1.6295589815   -2.6709490083
     H     1.0323054577   -4.0130408239   -3.1025578846
     O    -0.5337825611    1.9391451244    0.4397081274
     C    -1.8319835473    2.5052709995    0.3906056160
     C    -1.7575576483    3.8271351657    0.7109136638
     C    -0.3884284725    4.1352367462    0.9752464969
     C     0.3339815894    2.9936565233    0.8060137471
     H    -2.6256477808    1.8499811359    0.0650443807
     H    -2.5959121031    4.5134109058    0.7442055312
     H     1.3777107626    2.7417478135    0.9195091028
     H     0.0168760228    5.0995434523    1.2591172006
     O    -1.7225062375   -0.6564207157    1.1393393654
     C    -2.2006218578   -0.0414075756    2.3229229895
     C    -3.4364544474   -0.5326308546    2.6163825543
     C    -3.7800239932   -1.4807619834    1.6036469462
     C    -2.7423748687   -1.5438409129    0.7263615782
     H    -1.5189279020    0.6305305502    2.8230112266
     H    -4.0339763801   -0.2580819886    3.4780000356
     H    -2.5443055798   -2.1169801261   -0.1671849396
     H    -4.6931860646   -2.0609215912    1.5397748605
