44
-2.1794890081866129e+03 frame 81   xyz file generated by TeraChem
    Co    -0.4900672244   -0.4813300020    0.1888559846
     C     1.8464311775   -2.2534224001    0.7511478083
     N     0.3664970844   -2.1181807636    0.9620720334
     H     0.1762180875   -2.1645350468    1.9659962889
     H    -0.0786009037   -2.9517798945    0.5696321236
     H     2.3562879790   -1.3983810718    1.1983552658
     H     2.0571816611   -2.2864130133   -0.3188190355
     H     2.2202690957   -3.1687552653    1.2176332700
     C    -0.3774594959   -2.6598897839   -4.1021403726
     C     0.4645051030   -1.5659840136   -3.8107350915
     C     0.3785233016   -0.9560000903   -2.5692140850
     N    -0.4746571858   -1.3670362257   -1.5996785886
     C    -1.2912455285   -2.4134120174   -1.8808143218
     C    -1.2805017308   -3.0745401790   -3.0970129005
     S    -0.3829647954   -3.5379923004   -5.6142197119
     H     1.1818451568   -1.1898876919   -4.5329796417
     H     1.0172538000   -0.1098358991   -2.3354382665
     H    -1.9774340820   -2.7302551140   -1.0996646859
     H    -1.9594585590   -3.9066836324   -3.2567683670
     H     0.5953667852   -2.8359620004   -6.2274994883
     C    -2.5403691272    3.4271027081   -1.7273127954
     C    -3.1393118566    2.1566727686   -1.8543568209
     C    -2.5116363302    1.0556542951   -1.2956906701
     N    -1.3478750968    1.1349849678   -0.6047091383
     C    -0.7739120548    2.3553544251   -0.4776932890
     C    -1.3197068682    3.5072082913   -1.0199900229
     S    -3.2007783782    4.9090007038   -2.3790893067
     H    -4.0793981738    2.0181609965   -2.3784370707
     H    -2.9523750725    0.0701447581   -1.3986394024
     H     0.1517863381    2.4078696836    0.0849657705
     H    -0.8060907146    4.4542299804   -0.8853726022
     H    -4.3136116806    4.3778227344   -2.9323975080
     C    -0.5564355234    1.3901683102    4.6146329964
     C    -1.7336191818    0.9317690945    3.9865535922
     C    -1.6612241191    0.4298445526    2.6962455128
     N    -0.5027604013    0.3461026705    1.9986201017
     C     0.6300829400    0.7903732714    2.5987769068
     C     0.6480763281    1.3145506255    3.8799512314
     S    -0.4849237684    2.0476409002    6.2339335117
     H    -2.6967669530    0.9611619140    4.4856923260
     H    -2.5615686975    0.0799599519    2.2002382476
     H     1.5523646632    0.7286386628    2.0284647992
     H     1.5883351320    1.6566860030    4.3016225667
     H    -1.7941388304    1.9073954833    6.5383117776
