16
-9.7900208444519217e+02 frame 73   xyz file generated by TeraChem
    Co     0.3786556222    0.0375781607   -0.2065944262
     N     2.0678976330    0.3473950654    0.1085111243
     C     3.1521700411    0.6316867653    0.6264468565
     S     4.5531365401    0.9780553404    1.1927384713
     C    -1.1346816911   -1.1819467179   -2.3649063124
     O    -0.7032931995   -1.2502396789   -1.2120359125
     H    -1.0463018802   -0.2679695159   -2.9683098399
     H    -1.6230859030   -2.0655233301   -2.7952247160
     C    -1.4316157245    2.2536207555    0.0422034193
     O    -0.9222840464    1.3762192188   -0.6594559537
     H    -2.0972757699    2.9814092289   -0.4389508769
     H    -1.2402477395    2.3202776007    1.1211213424
     C    -0.5934175607   -1.5736995509    1.8954441673
     O    -0.5190089099   -0.4498994612    1.3892008618
     H    -1.1506171360   -1.6768709088    2.8350064657
     H    -0.1257361875   -2.4547789588    1.4378272675
