13
-8.5834007514381926e+02 frame 66   xyz file generated by TeraChem
    Mn     0.1840247015   -0.2094129990   -0.2289282949
     C    -2.0799119843   -1.6224819634   -0.7314626729
     O    -1.4681776516   -0.4810413929   -1.0341176047
     C    -1.2363485622   -2.4633677347    0.2798839270
     O    -1.5942440430   -3.5338365350    0.7145077155
     O    -0.0912198456   -1.8502070063    0.5791159306
     O    -3.1496906452   -1.9880319249   -1.1632874953
     C     2.5691732113    1.1053110318   -0.0457695457
     O     2.0184419957   -0.0965963954    0.0700155065
     C     1.4946969583    2.1751947884   -0.4016113354
     O     1.7433795395    3.3505093861   -0.5464315266
     O     0.2923512340    1.6186285592   -0.5205676761
     O     3.7430896738    1.3641283358    0.0978732316
