31
-8.1090125337175004e+02 frame 28   xyz file generated by TeraChem
    Cr    -0.1803984327    0.0855650142    0.1299380653
     C     2.7920316542   -0.5502608994    0.1817242511
     O     1.6790424636   -0.1194318010   -0.1666605194
     H     2.9331571147   -1.0595786374    1.1427592498
     H     3.6406157811   -0.4086256221   -0.4987759490
     C    -1.2541848568   -1.5049040545   -2.2337788862
     O    -0.7658507506   -1.2151185332   -1.1282730659
     H    -1.6162127669   -0.7295911944   -2.9197921155
     H    -1.3180412575   -2.5637327236   -2.5131653763
     C    -1.4938988019    4.4281126256   -1.0804960710
     C    -0.1920794058    3.9893090813   -1.3579820769
     C     0.1839315649    2.7098135546   -0.9834734193
     N    -0.6915347541    1.8782077895   -0.3379281603
     C    -1.9658112136    2.3016010843   -0.0670668201
     C    -2.3901257786    3.5686277950   -0.4255054223
     H    -1.8086643961    5.4273083289   -1.3712093710
     H     0.5262094912    4.6306728435   -1.8598838816
     H     1.1801897467    2.3282596842   -1.1833392517
     H    -2.6238358720    1.6068932537    0.4492596397
     H    -3.4042230414    3.8787414935   -0.1922676161
     C    -1.4811046696   -1.3136245943    4.4148923280
     C    -1.0539709108    0.0053636817    4.1954906476
     C    -0.6968052183    0.3923542158    2.9160566237
     N    -0.7581877583   -0.4873538172    1.8674670859
     C    -1.1663968378   -1.7778912586    2.0773757126
     C    -1.5376498332   -2.2111446670    3.3390959198
     H    -1.7652074351   -1.6371437851    5.4132036400
     H    -1.0019770801    0.7255605085    5.0064704001
     H    -0.3654134816    1.4052942627    2.7011980448
     H    -1.1926022255   -2.4396167226    1.2171195579
     H    -1.8673940102   -3.2367793509    3.4751382709
