56
-1.3097858449202045e+03 frame 86   xyz file generated by TeraChem
    Fe    -0.3106821058    0.5900523246    0.0844989551
     C     1.8054227080    0.6828333325    0.1850003501
     N     2.9570599837    0.7528822521    0.3109064137
     C     5.2021117107    0.7241539736   -0.7557360951
     C     5.6934175121   -0.5205213362   -1.1642925803
     C     6.5041103614   -0.6247582146   -2.3170313780
     C     6.8237467041    0.5132496621   -3.0574453865
     C     6.3397717759    1.7567865647   -2.6507129419
     C     5.5301717589    1.8639195581   -1.4979020351
     H     5.4788556380   -1.4153072420   -0.5854768611
     H     6.8888068595   -1.5963637242   -2.6107707870
     H     6.5956797667    2.6533486352   -3.2065303336
     H     5.1878904624    2.8457969253   -1.1808885677
     H     7.4575400729    0.4340682134   -3.9346930720
     C     4.3942420421    0.8471396263    0.5221569294
     H     4.5590422397    1.8111178759    1.0142541029
     H     4.6439165733    0.0567123267    1.2369524036
     C    -0.9544441217   -0.9310486971   -1.2425911589
     N    -1.3094710634   -1.7389170144   -1.9964355718
     C    -2.5926264023   -3.8316114682   -2.3765939740
     C    -2.0034538513   -5.0180977183   -1.9267004432
     C    -2.8057426413   -6.0700819813   -1.4308323581
     C    -4.1938764715   -5.9364738966   -1.3878553326
     C    -4.7857055047   -4.7573062047   -1.8405499455
     C    -3.9858771220   -3.7043510972   -2.3376412994
     H    -0.9259385488   -5.1530038831   -1.9770722087
     H    -2.3328738032   -6.9889704186   -1.0985598078
     H    -5.8654808794   -4.6464106214   -1.8299801167
     H    -4.4679118512   -2.8053138826   -2.7135701422
     H    -4.8097286734   -6.7502782845   -1.0190153078
     C    -1.7391033951   -2.7282938879   -2.9733083382
     H    -2.2787011724   -2.1715809325   -3.7459557611
     H    -0.8212106944   -3.1230235018   -3.4204638166
     C    -1.0943303822    2.4378049328   -0.6333673577
     N    -1.5064743241    3.4201677394   -1.0946855130
     C    -2.5086712792    5.6638412200   -0.7243060538
     C    -3.8484596492    5.6769291875   -0.3207971010
     C    -4.3213713199    6.6791937913    0.5562942648
     C    -3.4567129382    7.6678621694    1.0258478078
     C    -2.1215554862    7.6619006885    0.6218258562
     C    -1.6463197152    6.6606852811   -0.2552664462
     H    -4.5451350875    4.9320166166   -0.6970364245
     H    -5.3670040784    6.6810635932    0.8478133312
     H    -1.4412203575    8.4350671483    0.9648557691
     H    -0.6093843637    6.6905465431   -0.5800974305
     H    -3.8235678370    8.4446222794    1.6888466470
     C    -2.0183812618    4.6300313625   -1.7205888065
     H    -1.1993808880    5.0161147831   -2.3358855276
     H    -2.8188634261    4.3041105760   -2.3922222271
     C    -0.7240837050   -0.8476107105    2.7269457223
     N    -1.1636975305    0.3875923945    1.9911899700
     H    -0.9526456159    1.2046783288    2.5721405753
     H    -2.1857100579    0.3787702865    1.9194090924
     H     0.3568723330   -0.8085299786    2.8744449960
     H    -0.9799987585   -1.7284309100    2.1345588516
     H    -1.2149272830   -0.9156191726    3.7010649083
