13
-1.6826435610687681e+03 frame 72   xyz file generated by TeraChem
    Cr    -0.2667645207    0.2105912214   -0.2965547923
     S     2.2739249787    0.5476763667   -0.6873306509
     H     2.7852017295    0.9979440618    0.4888670506
     H     2.8057186074   -0.6993175555   -0.5771273671
     S    -1.0240970427   -1.5812015605   -2.0341727919
     H    -0.7472108910   -2.8439201769   -1.6207441793
     H    -2.3753978718   -1.6921668823   -1.9341868862
     S    -0.7118229569    2.7500420008    0.2166812269
     H    -0.0927909749    3.5259661083   -0.7118516323
     H    -0.0027597598    3.1946937079    1.2857899197
     S    -0.6534198446   -0.9410476183    1.9922679569
     H    -1.9654338468   -1.3005946724    1.9649472231
     H    -0.1767232604   -2.2081423621    1.8736259265
