35
-8.5969777242724865e+02 frame 39   xyz file generated by TeraChem
    Mn    -0.0017455942    0.0271582731   -0.0260986418
     C     4.7492145625    0.1215448538   -0.0347913294
     C     4.0114815639    0.8612033463   -0.9638515441
     C     2.6272720543    0.8081505810   -0.9192419354
     N     1.9625742344    0.0553868286   -0.0019947390
     C     2.6821144030   -0.6673861513    0.8995926410
     C     4.0693639893   -0.6535527183    0.9071748752
     H     5.8346446556    0.1505754746   -0.0450927522
     H     4.4989988364    1.4760671260   -1.7127361352
     H     2.0228823296    1.3720396436   -1.6206204548
     H     2.1205473545   -1.2511552925    1.6176427555
     H     4.6014759471   -1.2417808399    1.6471999404
     C    -1.8768398494   -3.1746634225   -2.9435738572
     C    -0.5075157353   -3.1772686045   -2.6672007960
     C     0.0142842551   -2.1895832990   -1.8440868633
     N    -0.7701643242   -1.2193786065   -1.3103730484
     C    -2.1022549287   -1.2151463572   -1.5750208224
     C    -2.6834366703   -2.1768915676   -2.3874518401
     H    -2.3107385144   -3.9409636142   -3.5788388998
     H     0.1519032087   -3.9345839202   -3.0771778025
     H     1.0689256383   -2.1594003147   -1.5923048250
     H    -2.6928930004   -0.4316832300   -1.1112776685
     H    -3.7518720616   -2.1447122153   -2.5721042970
     C    -1.2833587048    4.3800921493   -1.3740735099
     C    -1.2951213360    3.3408117442   -2.3093099289
     C    -0.9102686038    2.0694078892   -1.9096975043
     N    -0.5149802279    1.8123454222   -0.6361080266
     C    -0.4953422871    2.8223699884    0.2719692235
     C    -0.8760179092    4.1135283404   -0.0643757040
     H    -1.5877147341    5.3819303095   -1.6617876569
     H    -1.6032654399    3.5086112507   -3.3357807637
     H    -0.9128186739    1.2350987459   -2.6035558474
     H    -0.1731557810    2.5716568486    1.2779553548
     H    -0.8544508604    4.8906632082    0.6920621616
     I    -0.9060738756   -0.7517350658    2.1849548660
