13
-2.1336983158529770e+03 frame 82   xyz file generated by TeraChem
    Ni    -0.0003697875   -0.0009033361    0.0010560232
     N     1.6555337359   -0.8415443943    0.3392406015
     C     2.6885746672   -1.3627407556    0.5544100919
     S     4.1328487695   -2.0914225444    0.8538035163
     N     0.2508606486   -0.2763158364   -1.8504667348
     C     0.4071626730   -0.4440842294   -3.0050438452
     S     0.6252870660   -0.6790020957   -4.6182515663
     N    -1.6548771611    0.8414701781   -0.3389760881
     C    -2.6860554362    1.3658508142   -0.5554448421
     S    -4.1276055256    2.0990002538   -0.8571649090
     N    -0.2518048576    0.2740612694    1.8525343106
     C    -0.4102074201    0.4412890681    3.0069107271
     S    -0.6313678409    0.6753111260    4.6198249988
