65
-2.0711963666547640e+03 frame 65   xyz file generated by TeraChem
    Ni    -0.3574847964    0.1893091147    0.3283097125
     N    -0.9821839464   -1.0162420389   -1.1658664738
     N    -0.9073775373   -1.3781420479    1.4614743289
     C    -0.9425389563   -0.7607877203   -2.4816146566
     H    -0.5863893371    0.2209853654   -2.7752258625
     C    -1.3241868908   -1.7032898710   -3.4308426937
     H    -1.2597532699   -1.4529255639   -4.4847014240
     C    -1.7686520980   -2.9602064994   -3.0109377809
     C    -1.8234159207   -3.2064264574   -1.6307527326
     H    -2.1506498865   -4.1738795348   -1.2771247074
     C    -1.8937393073   -3.5585598217    1.3725612315
     H    -2.3090798185   -4.3704947868    0.7938230465
     C    -1.8928334989   -3.6442071162    2.7734686920
     C    -1.3660941458   -2.5647117566    3.4907389253
     H    -1.3378483210   -2.5704212451    4.5754409719
     C    -0.8804573762   -1.4589578309    2.8033203183
     H    -0.4635356729   -0.6090318263    3.3352627926
     C    -1.4184014917   -2.2272645309   -0.7297411908
     C    -1.4122052078   -2.4162847587    0.7413224123
     C    -2.4592303833   -4.8515076526    3.4754375078
     C    -2.1436762507   -4.0382897381   -3.9938175909
     C    -1.3175964366   -5.3259434962   -3.7761531952
     H    -3.2028671190   -4.3079666399   -3.8719947113
     H    -2.0282657985   -3.6780786402   -5.0218576856
     C    -3.8946208276   -5.1880981659    3.0125209562
     H    -2.4266827442   -4.7086292012    4.5607785973
     H    -1.8406325345   -5.7346530755    3.2571991176
     O    -4.3634208739   -4.7881804972    1.9759592600
     O    -4.5929051212   -5.9984764572    3.8201622187
     H    -4.1014145548   -6.2470039398    4.6219601876
     O    -0.6783773548   -5.5364343786   -2.7749150000
     O    -1.3746655779   -6.2303217931   -4.7641690304
     H    -1.9235213253   -5.9363741259   -5.5117976739
     N     1.6455693341    0.3451169458    0.2015016757
     N    -0.2829998815    2.1013888755   -0.2818201014
     C     2.5477858443   -0.6156001579    0.4480416704
     H     2.1570404007   -1.5758479175    0.7679035606
     C     3.9138279866   -0.4045299764    0.2938713660
     H     4.6040317431   -1.2178889838    0.4926367537
     C     4.3719530221    0.8481973037   -0.1243058195
     C     3.4170764978    1.8482473398   -0.3632783687
     H     3.7430905004    2.8228190868   -0.6984604012
     C     1.2232332233    3.8732155848   -0.8534869373
     H     2.2341891467    4.2316193638   -0.9817216614
     C     0.1507122047    4.7593069425   -1.0397091381
     C    -1.1433259828    4.2637562913   -0.8469436956
     H    -2.0133574779    4.8997748896   -0.9735238486
     C    -1.3188982356    2.9355939652   -0.4772195137
     H    -2.3119993510    2.5248561268   -0.3225183125
     C     2.0629202253    1.5734969149   -0.2033164445
     C     0.9855255449    2.5598274802   -0.4621594784
     C     0.3934532288    6.1968568120   -1.4204894836
     C     5.8362434204    1.1226004511   -0.3462852559
     C     6.1204551088    1.6218364172   -1.7808563375
     H     6.1808820695    1.9052287165    0.3453018645
     H     6.4318291822    0.2291758419   -0.1292856024
     C     1.4073344614    6.8987350449   -0.4894104961
     H    -0.5527701203    6.7481724570   -1.4430230123
     H     0.8087674905    6.2465983143   -2.4379834825
     O     2.1577376727    6.3004393866    0.2406958946
     O     1.4389194524    8.2362983204   -0.5690083369
     H     0.7810304602    8.5928098527   -1.1906192642
     O     5.2550314937    2.0074494139   -2.5270755921
     O     7.4097008902    1.6325685854   -2.1484917991
     H     8.0016192273    1.3004003465   -1.4515292262
