101
-2.0716043185365756e+03 frame 126   xyz file generated by TeraChem
    Co    -0.1858911704    0.1483184008   -0.2559884176
     C     1.4712036511    0.5109725588   -1.1766132467
     N     2.4878296715    0.7043097210   -1.7145482915
     C     3.6945385004    0.9117375748   -2.3448521990
     C     4.2218734521    2.2126815856   -2.4307298924
     C     5.4415009054    2.3974664748   -3.0593914716
     C     6.1689190396    1.3210999702   -3.6144106610
     C     7.5153279439    1.5822379378   -4.3003655995
     C     7.2867503198    2.5273526452   -5.5073113733
     C     8.4764070362    2.2562941753   -3.2882115792
     C     8.1736302591    0.2869503547   -4.8113939805
     C     5.6064860136    0.0342287636   -3.5113196129
     C     4.3853666430   -0.1826999855   -2.8872683172
     H     3.6784607595    3.0502270169   -2.0058896575
     H     5.8416786959    3.4034371272   -3.1202800735
     H     6.6075053332    2.0785484541   -6.2403667228
     H     8.2418109500    2.7209472703   -6.0068095175
     H     6.8705053721    3.4940285070   -5.2049160876
     H     8.6462804565    1.6165304204   -2.4155490895
     H     8.0972575508    3.2210673190   -2.9364187727
     H     9.4433946547    2.4375123006   -3.7685432052
     H     8.3835843562   -0.4181557960   -3.9989784386
     H     9.1297435225    0.5288181026   -5.2852099887
     H     7.5592722000   -0.2191765357   -5.5647846791
     H     6.1282376730   -0.8196519268   -3.9248146659
     H     3.9653933819   -1.1808034549   -2.8172914086
     C     0.0645102526   -1.7115201610   -0.5697586664
     N     0.1975326731   -2.8514763008   -0.7638024567
     C     0.3373270817   -4.2115365991   -0.9998442630
     C    -0.6608150190   -4.8914000919   -1.7141099754
     C    -0.5106042235   -6.2518772471   -1.9368452738
     C     0.6082126657   -6.9694941901   -1.4652485365
     C     0.7164037388   -8.4774304004   -1.7343814714
     C    -0.5046435132   -9.1907623265   -1.1018208778
     C     0.7211697306   -8.7196207025   -3.2644888060
     C     1.9992982035   -9.0879274303   -1.1392012796
     C     1.5857827408   -6.2504631688   -0.7555010789
     C     1.4659985059   -4.8844363435   -0.5188804887
     H    -1.5287305287   -4.3566716918   -2.0864773127
     H    -1.2864072143   -6.7683846651   -2.4918553062
     H    -0.5302275924   -9.0448548997   -0.0162141583
     H    -0.4449544175  -10.2668259824   -1.2962206399
     H    -1.4534209056   -8.8334071480   -1.5155814284
     H     1.5777572113   -8.2306832802   -3.7414510491
     H    -0.1908473819   -8.3510749319   -3.7453862789
     H     0.7896988147   -9.7937090432   -3.4659547565
     H     2.9048245197   -8.6491039286   -1.5734208689
     H     2.0236993791  -10.1606848320   -1.3533555489
     H     2.0429311057   -8.9734624237   -0.0500687679
     H     2.4621916790   -6.7581082255   -0.3719291715
     H     2.2287054500   -4.3477938903    0.0364058925
     C    -0.4711915022    2.0052336735    0.0088576640
     N    -0.6498932220    3.1471622509    0.1521636973
     C    -0.8644770086    4.5061466305    0.3094381694
     C    -1.5689519410    4.9714563080    1.4304573999
     C    -1.7756927648    6.3349211430    1.5705811573
     C    -1.3030928437    7.2652479118    0.6209713913
     C    -1.5663127590    8.7638178440    0.8240714124
     C    -3.0965179836    9.0046313944    0.8552789525
     C    -0.9444668656    9.2096494254    2.1709142963
     C    -0.9593538831    9.6237542668   -0.3004715486
     C    -0.6028424119    6.7591304933   -0.4884775150
     C    -0.3776448703    5.3970195247   -0.6548239313
     H    -1.9368823625    4.2710772989    2.1731533552
     H    -2.3191998034    6.6856143979    2.4409992055
     H    -3.5651237714    8.7084052513   -0.0897355964
     H    -3.2989956139   10.0691968417    1.0130793114
     H    -3.5855710514    8.4525847375    1.6647826002
     H     0.1390873558    9.0483205446    2.1809620406
     H    -1.3757790096    8.6761875878    3.0243277280
     H    -1.1282425708   10.2781139825    2.3249855093
     H     0.1308239949    9.5233643878   -0.3531484214
     H    -1.1788304272   10.6782851713   -0.1084939639
     H    -1.3813951289    9.3791524487   -1.2819748293
     H    -0.2248793746    7.4354985364   -1.2449819954
     H     0.1595949175    5.0238308538   -1.5207060455
     C    -1.6313028832   -0.2716872255    0.9533776266
     N    -2.4802254700   -0.5457450193    1.7047269788
     C    -3.4697693818   -0.8852876854    2.6001995648
     C    -3.7299337207   -2.2425919187    2.8622046978
     C    -4.7158329978   -2.5674254588    3.7777181602
     C    -5.4643492315   -1.5791368662    4.4551427179
     C    -6.5333135196   -1.9988743152    5.4709226609
     C    -7.6030478202   -2.8604233669    4.7522629828
     C    -5.8602295243   -2.8354360669    6.5892502526
     C    -7.2345400993   -0.7905387460    6.1200572372
     C    -5.1801362381   -0.2318974866    4.1603503945
     C    -4.1976918509    0.1253456162    3.2462313263
     H    -3.1606271219   -3.0144437986    2.3547619421
     H    -4.9087742003   -3.6158576313    3.9762699329
     H    -8.0999204704   -2.2939026676    3.9573478705
     H    -8.3649978454   -3.1708948244    5.4744423840
     H    -7.1759265178   -3.7667216220    4.3109967233
     H    -5.0930356914   -2.2540724752    7.1119741238
     H    -5.3935969617   -3.7462599279    6.2006822209
     H    -6.6142035094   -3.1379482012    7.3232116159
     H    -6.5337755235   -0.1554933437    6.6739408406
     H    -7.9815158456   -1.1485123190    6.8347467004
     H    -7.7602212362   -0.1733082393    5.3827115953
     H    -5.7328595862    0.5580451078    4.6532511941
     H    -3.9898286482    1.1684070073    3.0312499714
