17
-5.4379472489026784e+02 frame 65   xyz file generated by TeraChem
    Cr    -0.0289911580    0.0013347259   -0.0454843121
     C     2.1534284023    1.1638995756   -1.9532067732
     O     1.6153770848    0.6403672558   -0.9758690218
     H     3.2416100579    1.3026826054   -1.9562854476
     H     1.5668339841    1.4934758346   -2.8215151313
     C     0.3891485321   -2.8605462849   -1.1936877452
     O    -0.0218721274   -1.7037396303   -1.0878339476
     H     0.0527004995   -3.4732321032   -2.0391660785
     H     1.0858731834   -3.2927478375   -0.4622406876
     C    -0.0014943836    2.6434713592    1.5993028354
     O    -0.3217663484    1.8146775806    0.7456188251
     H     0.7853839868    2.4342396645    2.3369549932
     H    -0.5142401921    3.6129654021    1.6234159734
     C    -2.5308277331   -0.9475205040    1.5597584524
     O    -1.3548080932   -0.7257208083    1.2665563341
     H    -2.7635030525   -1.4126203896    2.5257313541
     H    -3.3524151266   -0.6909739190    0.8768966757
