11
-1.2952582127345263e+03 frame 123   xyz file generated by TeraChem
    Cr    -0.4984646779   -0.5077752932   -0.0702371659
     I     0.6397450932   -3.0828753039    0.2930675539
     S    -0.1282279221   -0.8572545408   -2.5898897579
     H     1.0831021919   -0.2798639367   -2.7645256971
     H    -0.8242365460    0.1460388023   -3.1715116258
     S    -1.5896403718    1.7707193438   -0.5231993803
     H    -2.3493901181    1.9852169016    0.5742681841
     H    -0.6022416842    2.6117042461   -0.1376685396
     S    -0.8985328216   -0.1649176318    2.4617115464
     H     0.3321072295   -0.2479139292    3.0179982283
     H    -1.3215155311   -1.3663294699    2.9169567701
