29
-8.1371440350104785e+02 frame 47   xyz file generated by TeraChem
    Fe     0.1123188160   -0.1546497036   -0.1813806155
     O    -0.2595197935   -1.3541326463   -1.5880544720
     C    -0.9098522300   -2.4759138966   -1.4924360777
     C    -0.9837951531   -3.2748187629   -2.7582492384
     C    -1.5136162451   -2.9255704106   -0.3092083138
     C    -1.5178191133   -2.2292576560    0.9067052975
     O    -0.9289197014   -1.0810774406    1.0746707954
     C    -2.2278712222   -2.7609213180    2.1139438631
     H     0.0310528816   -3.5399043038   -3.0786009269
     H    -1.4159893100   -2.6554392452   -3.5525861575
     H    -1.5753359879   -4.1835597236   -2.6393148404
     H    -2.6471626795   -3.7535907991    1.9433355359
     H    -3.0342152998   -2.0696832012    2.3887469570
     H    -1.5338096517   -2.7930800375    2.9612237994
     H    -2.0364654047   -3.8726189881   -0.3451719565
     O     1.9498091782    0.0734508395    0.1323922699
     C     2.6036030820    1.1953640958    0.0372084387
     C     4.0776794603    1.0892668791    0.2828315728
     C     1.9983144001    2.4229639908   -0.2677521637
     C     0.6288621084    2.6200562591   -0.4976138987
     O    -0.2543209499    1.6642699447   -0.4644001074
     C     0.0750897177    3.9795337721   -0.7973848744
     H     4.2484056504    0.6451433083    1.2703336348
     H     4.5782511786    2.0566972816    0.2242847133
     H     4.5175864202    0.4057130605   -0.4533447474
     H     0.8495276734    4.7474435832   -0.8208336493
     H    -0.6744373884    4.2385215524   -0.0399855911
     H    -0.4451906801    3.9530883786   -1.7621014325
     H     2.6394360447    3.2936596331   -0.3168927626
