14
-9.2657822014910994e+02 frame 56   xyz file generated by TeraChem
    Fe     0.0122348246    0.0774567699   -0.2765215642
     C     2.9787049889    0.2083893463    0.5577469317
     O     1.9214035149    0.4395977417   -0.0411967015
     H     3.0499943093   -0.5992177834    1.2984582547
     H     3.8577322868    0.8264703462    0.3339975931
     C    -0.6617193413   -2.2289274987   -2.2181431745
     O    -0.0565080913   -1.3184364663   -1.6392745722
     H    -1.7039228640   -2.4675573194   -1.9680827725
     H    -0.1386392614   -2.8003726816   -2.9957435690
     C    -1.1875656766    2.8173256311   -1.0909235490
     O    -0.7671516367    1.6557506306   -1.1414730518
     H    -1.1014608722    3.4152058487   -0.1738308296
     H    -1.6525200072    3.2507202912   -1.9858830372
    Cl    -0.9375985402   -0.2842908764    1.5780258492
