31
-1.2123019214520632e+03 frame 82   xyz file generated by TeraChem
    Fe    -0.0668800053    0.4755884657   -0.1382147318
     O     1.9069131384    0.3546826878   -0.6159848907
     C     2.8877948779    0.7483274021    0.3175203195
     C     3.9828983677   -0.0262818172    0.1793450582
     C     3.7093402975   -0.9752902239   -0.8731428885
     C     2.4630352756   -0.7358714802   -1.3251962779
     H     2.6466960786    1.6042410093    0.9255208001
     H     4.9040445057    0.0719622453    0.7384764700
     H     1.8471029909   -1.1555883986   -2.1018700662
     H     4.3844534267   -1.7310257340   -1.2522347692
     O    -0.5234943984   -0.5399082690   -1.8040227137
     C    -1.6127244745   -1.4253320568   -1.9318862287
     C    -2.1657873563   -1.2761905022   -3.1522127454
     C    -1.4278531873   -0.2456688229   -3.8438083114
     C    -0.4547578857    0.1848775685   -3.0152302234
     H    -1.7730502198   -2.0893071911   -1.0980900367
     H    -2.9958214345   -1.8483441906   -3.5448767983
     H     0.3588401127    0.8904477911   -3.0909770371
     H    -1.5989366159    0.1029701436   -4.8537421623
     O    -0.7656833351    2.5733872989   -0.6000593787
     C    -1.8648054452    1.7651463891   -0.3533644001
     C    -1.8671193122    1.3644168540    0.9659641406
     C    -0.6927959735    1.9520515556    1.5748134484
     C    -0.0592406118    2.6689548173    0.5849298702
     H    -2.5444098795    1.6267385951   -1.1836836239
     H    -2.6345521551    0.7735698911    1.4502592776
     H     0.8087220743    3.3139574921    0.5589413832
     H    -0.3870007541    1.8860782979    2.6113781386
     S     0.1833499223   -1.5238584109    1.0657389781
     H    -0.3611239523   -1.2951607413    2.2814553323
     H     1.4573525180   -1.3739122393    1.4997701464
