38
-2.0366805319886175e+03 frame 30   xyz file generated by TeraChem
    Cr    -0.2005229219   -0.1173120235   -0.2817236596
     C     4.4539343466   -0.7624655587    0.6239720119
     C     3.9852206552    0.4708450354    0.1170552805
     C     2.6406374302    0.6387416106   -0.1349933837
     N     1.7201887628   -0.3412151290    0.0831456838
     C     2.1679772938   -1.5372187842    0.5653409653
     C     3.4944779449   -1.7785961355    0.8415696372
     S     6.1188082791   -1.1092657906    0.9950135107
     H     4.6624641480    1.2959326793   -0.0763659102
     H     2.2641829603    1.5809978152   -0.5194929521
     H     1.4192148826   -2.3035423775    0.7380680149
     H     3.7855650559   -2.7484445364    1.2315946394
     H     6.6209834990    0.0946422020    0.6503849444
     C    -0.8773267332   -2.2924018299   -4.4944779724
     C     0.0526752839   -1.2378562906   -4.3432739639
     C     0.2048327283   -0.6347643369   -3.1141018527
     N    -0.5074374158   -1.0066082955   -2.0132685210
     C    -1.4031039715   -2.0282610497   -2.1509931762
     C    -1.6109144596   -2.6754333219   -3.3489960600
     S    -1.1716209298   -3.1422922136   -5.9856051342
     H     0.6539363495   -0.8910654340   -5.1769560493
     H     0.9176421290    0.1748328667   -2.9847810266
     H    -1.9531552027   -2.3089159475   -1.2607538168
     H    -2.3406127760   -3.4774344180   -3.3936953414
     H    -0.2876298450   -2.4607493788   -6.7434795562
     C    -1.6297328423    4.4279006515   -0.3428108721
     C    -2.0725004739    3.5041663157   -1.3161134460
     C    -1.5901374699    2.2134184317   -1.3016116804
     N    -0.6760204832    1.7774116666   -0.3893490638
     C    -0.2506824704    2.6630271236    0.5586851327
     C    -0.6905653833    3.9649638529    0.6101197713
     S    -2.1626943074    6.0799027712   -0.2327941756
     H    -2.7945834959    3.7859802285   -2.0748984968
     H    -1.9331132251    1.4879525515   -2.0318073222
     H     0.4545467267    2.2859305372    1.2922287116
     H    -0.3174633117    4.6203843197    1.3903794390
     H    -3.0122422577    6.0531118427   -1.2807061896
     I    -1.6083370162   -0.9533071558    1.6613535066
