49
-1.5067334839627717e+03 frame 91   xyz file generated by TeraChem
    Co     0.0392142059   -0.0977165898   -0.0409418341
     C     4.8709818692   -0.6939930883    0.1431474665
     C     4.3307450324    0.5827749909    0.3719952108
     C     2.9593704961    0.7562763972    0.2693369351
     N     2.1127776530   -0.2539518655   -0.0393987970
     C     2.6381856728   -1.4857884530   -0.2473262901
     C     3.9972916724   -1.7479743269   -0.1734601913
     C     6.2810502419   -0.9167928555    0.2348478206
     H     4.9711774900    1.4203650376    0.6251781096
     H     2.5084678066    1.7274579132    0.4378541891
     H     1.9420868107   -2.2870320228   -0.4810624273
     H     4.3735385879   -2.7486274361   -0.3546022728
     N     7.4270336574   -1.0968079232    0.3099178730
     C    -2.9988866309   -2.1712293868   -3.2563321163
     C    -1.6360849710   -1.9788595778   -3.5384362296
     C    -0.8240871874   -1.4349838420   -2.5554324485
     N    -1.2810123984   -1.0892869370   -1.3278067774
     C    -2.5956531360   -1.2762349514   -1.0628050266
     C    -3.4815677215   -1.8061582005   -1.9883694164
     C    -3.8774058436   -2.7245344561   -4.2405751862
     H    -1.2234134375   -2.2466339700   -4.5046919073
     H     0.2318158357   -1.2675027466   -2.7490070417
     H    -2.9388708248   -0.9880164456   -0.0751071621
     H    -4.5278076566   -1.9342572666   -1.7338723082
     N    -4.5916028157   -3.1740683145   -5.0400037962
     C    -0.8041028845    4.5957578713   -1.1166094298
     C     0.2448449843    3.9131002880   -1.7549596352
     C     0.5108630483    2.6028636216   -1.3866257429
     N    -0.2008627252    1.9476722389   -0.4393111650
     C    -1.2178320649    2.6074209140    0.1645985799
     C    -1.5474976964    3.9203340861   -0.1341244118
     C    -1.1108776510    5.9498822560   -1.4616661537
     H     0.8381995585    4.3978685152   -2.5222462538
     H     1.3165403473    2.0517491475   -1.8607916595
     H    -1.7805426559    2.0578818651    0.9135704982
     H    -2.3659136215    4.4115466044    0.3802578216
     N    -1.3603366287    7.0500965104   -1.7418675174
     C    -1.2204013167   -1.7290445048    4.3783252762
     C    -0.6765078222   -0.4467529889    4.1917863292
     C    -0.3893166176   -0.0275312656    2.9025183292
     N    -0.6211392732   -0.7937209346    1.8095129812
     C    -1.1412290435   -2.0297851362    1.9951873734
     C    -1.4509634291   -2.5333547554    3.2496981363
     C    -1.5299371484   -2.2064613410    5.6908474786
     H    -0.4805560282    0.2035137090    5.0370315319
     H     0.0414582186    0.9541359925    2.7282916927
     H    -1.3089001921   -2.6281656441    1.1059787208
     H    -1.8626518986   -3.5311903425    3.3529764963
     N    -1.7822313153   -2.5939488257    6.7573855727
