41
-1.0942820011418787e+03 frame 101   xyz file generated by TeraChem
    Mn     0.1886501239   -0.2149582027   -0.2611922749
     N    -0.2790741701   -2.1054427686   -0.8010837069
     N     0.0049557539   -1.0150653151    1.5938513469
     C    -0.5192439586   -2.5424809149   -2.0539024328
     H    -0.3232394017   -1.8350071086   -2.8522076113
     C    -0.9959448890   -3.8201519575   -2.3240947000
     H    -1.1768916902   -4.1263730473   -3.3485121200
     C    -1.2340615455   -4.6796045375   -1.2521149582
     H    -1.6076644858   -5.6846517220   -1.4214440283
     C    -0.9985365546   -4.2317318465    0.0484531055
     H    -1.2006911296   -4.8853164808    0.8883895807
     C    -0.2701798253   -3.0890936824    2.7714453819
     H    -0.4750982523   -4.1528050457    2.7597768893
     C     0.0135618382   -2.4502796406    3.9790992248
     H     0.0158958182   -3.0152820632    4.9060007693
     C     0.3052528282   -1.0867797281    3.9773276741
     H     0.5437238364   -0.5558528864    4.8923164372
     C     0.2911648765   -0.4087216251    2.7635724209
     H     0.5176885635    0.6503901854    2.7091787335
     C    -0.5237960297   -2.9363811256    0.2528486622
     C    -0.2647393057   -2.3523578318    1.5873436537
     N     1.2464473864    0.5220548216   -1.8241285005
     N    -0.1676398263    1.7555673146    0.0261773387
     C     2.0440457500   -0.1861983014   -2.6489530635
     H     2.0152826542   -1.2645281914   -2.5354300536
     C     2.8682170728    0.4144674307   -3.5941373982
     H     3.4950119775   -0.1968526008   -4.2340055430
     C     2.8668540508    1.8055964265   -3.6882767398
     H     3.4965294708    2.3119522590   -4.4131715598
     C     2.0541385058    2.5474078111   -2.8298773092
     H     2.0630138225    3.6296252269   -2.8796981161
     C     0.1048860088    3.9357885510   -0.9420932400
     H     0.5360671145    4.5763738783   -1.7019881653
     C    -0.7546981816    4.4764157158    0.0153784544
     H    -0.9797814714    5.5383322386    0.0059916803
     C    -1.3270391301    3.6370226524    0.9703141221
     H    -2.0098068246    4.0157972096    1.7228719551
     C    -1.0079093060    2.2841368780    0.9392109954
     H    -1.4342783818    1.5914052548    1.6569818815
     C     1.2542401761    1.8844473972   -1.9000983011
     C     0.3816380353    2.5693306617   -0.9212755771
