49
-2.7306044176947198e+03 frame 135   xyz file generated by TeraChem
    Co    -0.0184645534   -0.0315441922    0.0281089238
     C     4.6698902978   -0.3167848872    1.3908876201
     C     3.8686249542    0.8084438504    1.6691033969
     C     2.5664034916    0.8437720239    1.2075510292
     N     2.0028104696   -0.1508894165    0.4787956622
     C     2.7734536797   -1.2360727538    0.2158401690
     C     4.0803715791   -1.3582517607    0.6439975857
     S     6.3293907601   -0.5045016784    1.9116422240
     H     4.2505824382    1.6470496420    2.2414839681
     H     1.9354165247    1.7011215833    1.4249959155
     H     2.3080228177   -2.0312077915   -0.3568613924
     H     4.6386121163   -2.2572550130    0.4034342595
     H     6.4343888397    0.6754847562    2.5565264619
     C    -0.4022487184   -2.4515627589   -4.2112710197
     C     0.7950078152   -1.7793044212   -3.8952919843
     C     0.9178891147   -1.1442430743   -2.6729859438
     N    -0.0648414526   -1.1263337175   -1.7411942647
     C    -1.2225302451   -1.7623095848   -2.0522724203
     C    -1.4286950286   -2.4276804278   -3.2437422573
     S    -0.6974334102   -3.3022827063   -5.7113812792
     H     1.6257742589   -1.7484669321   -4.5924425540
     H     1.8346706714   -0.6232317154   -2.4173694318
     H    -2.0103285408   -1.7294754112   -1.3043450754
     H    -2.3784802648   -2.9205778212   -3.4239040669
     H     0.4980410339   -3.0506669387   -6.2833443578
     C    -2.0745411164    4.1980596793   -1.3382352455
     C    -0.7008501373    3.9358636576   -1.5101872571
     C    -0.1760475265    2.7419629256   -1.0518132768
     N    -0.9114495847    1.7930578908   -0.4230786635
     C    -2.2351502575    2.0437209472   -0.2636617753
     C    -2.8440890993    3.2044571348   -0.6976979086
     S    -2.8785010414    5.6594725480   -1.8667093704
     H    -0.0449235818    4.6496502319   -1.9972051934
     H     0.8803511439    2.5244930504   -1.1835729989
     H    -2.8171037183    1.2728366348    0.2307379254
     H    -3.9094045478    3.3387388834   -0.5404965834
     H    -1.7911745593    6.2671496515   -2.3840972494
     C    -2.3827496129   -1.4442265888    4.0649192446
     C    -1.8933556283   -2.3652387844    3.1172504841
     C    -1.2747385380   -1.8971028270    1.9733960996
     N    -1.1176369287   -0.5798189233    1.6941964014
     C    -1.5842736275    0.3065151451    2.6093724780
     C    -2.2064769682   -0.0732851598    3.7816901251
     S    -3.1825069480   -1.8877689369    5.5561314279
     H    -1.9879927293   -3.4354487880    3.2673543071
     H    -0.8855904346   -2.5990826538    1.2407017920
     H    -1.4464783663    1.3569959774    2.3754955926
     H    -2.5541876015    0.6880843430    4.4723979137
     H    -3.1249891934   -3.2240647603    5.3822738996
