45
-1.2286623226271320e+03 frame 43   xyz file generated by TeraChem
    Cr     0.2342774756   -0.2482376818   -0.3266272697
     C    -2.1547024937   -1.5333557310    3.0338853966
     C    -2.9406168366   -2.5138759448    2.4403019111
     C    -2.7839915091   -2.8104069374    1.0612377834
     C    -3.5359173181   -3.7993733360    0.3394441344
     C    -3.3160943824   -4.0187015011   -0.9948420907
     C    -2.3264536277   -3.2670257370   -1.7159508158
     C    -2.0289322688   -3.4238359980   -3.0947863483
     C    -1.0474265485   -2.6384845488   -3.6875202700
     C    -0.3532347558   -1.6931082992   -2.9211840161
     N    -0.6132440096   -1.5225731312   -1.6096012549
     C    -1.5841408300   -2.2948864364   -1.0162610903
     C    -1.8114185388   -2.0680469555    0.3621955312
     N    -1.0387390449   -1.0978916672    0.9563157809
     C    -1.2090146673   -0.8389140527    2.2681172387
     H    -2.2595662144   -1.2932956264    4.0868408666
     H    -3.6757817085   -3.0553628780    3.0304269806
     H    -4.2871662512   -4.3746780316    0.8720720865
     H    -3.8915123013   -4.7694795624   -1.5280072685
     H    -2.5703391318   -4.1586929883   -3.6853724550
     H    -0.8064122232   -2.7436245424   -4.7402307420
     H     0.4175653245   -1.0685805014   -3.3640871410
     H    -0.5841274251   -0.0687876499    2.7116812795
     C    -0.3234332603    3.9846062467   -0.9992652894
     C     0.9834080564    4.4414719965   -0.8797320537
     C     2.0329126873    3.5269709829   -0.6033075445
     C     3.4168252408    3.8843249982   -0.4592031075
     C     4.3666229178    2.9344200457   -0.1918287325
     C     4.0091216077    1.5505654403   -0.0475072173
     C     4.9235117896    0.5010212195    0.2290948592
     C     4.4664526683   -0.8057084058    0.3491074293
     C     3.1020477267   -1.0826346695    0.1963255087
     N     2.2102364823   -0.1075018602   -0.0696944190
     C     2.6536408453    1.1892078556   -0.1875687516
     C     1.6713848895    2.1715525702   -0.4630950773
     N     0.3745690922    1.7283093935   -0.5803469127
     C    -0.6004914732    2.6202649869   -0.8461418029
     H    -1.1391026303    4.6681909929   -1.2106907394
     H     1.2049134938    5.4991729806   -0.9982366814
     H     3.7002338368    4.9270406613   -0.5661821408
     H     5.4093749726    3.2177030986   -0.0848803729
     H     5.9812537917    0.7224040230    0.3474654055
     H     5.1499327661   -1.6214076025    0.5607564768
     H     2.7177651353   -2.0942941639    0.2864007122
     H    -1.6123155718    2.2362052757   -0.9353413356
