11
-1.5710626407553962e+03 frame 26   xyz file generated by TeraChem
    Cr     0.0666028226   -0.0643073829    0.0891157804
     N     1.8915392815    0.2442047702   -0.2108857302
     C     3.0523281258    0.3934862256   -0.4432841575
     S     4.6205367746    0.5963558289   -0.7402687270
     N    -0.4489488044   -1.2704997306   -1.2269649742
     C    -0.7231568602   -1.9846059421   -2.1429035060
     S    -1.1052916439   -2.9617782921   -3.3596847571
     N    -0.7485394809    1.5836970437   -0.2293176272
     C    -1.2799648989    2.6223635549   -0.4773524487
     S    -2.0008474083    4.0243372203   -0.7974721973
     I    -0.7096673130   -1.0105244166    2.4623232399
