46
-1.2078929485007225e+03 frame 53   xyz file generated by TeraChem
    Fe     0.0830038350    0.2175904359   -0.0309319228
     C     4.7729200240   -0.0433872914   -0.6453934508
     C     3.8887072068    0.1934201058   -1.7189579242
     C     2.5271495980    0.1618681674   -1.4840421823
     N     2.0029392096   -0.0701871750   -0.2441300462
     C     2.8584756090   -0.3058644146    0.7913382957
     C     4.2317339546   -0.3019490489    0.6301936038
     C     6.1829229174   -0.0279601839   -0.8486328591
     H     4.2645733747    0.3915085628   -2.7174647786
     H     1.8263650498    0.3203205048   -2.2991168317
     H     2.4110677755   -0.5030599716    1.7576879165
     H     4.8784448802   -0.4965471008    1.4795675751
     N     7.3352015123   -0.0147037077   -1.0146009359
     C    -1.5137612943   -2.5665577740   -3.4445620261
     C    -0.4555260865   -2.9863915474   -2.6282078358
     C    -0.0143308862   -2.1561673619   -1.6099361207
     N    -0.5915177322   -0.9428155593   -1.3830705310
     C    -1.6247122250   -0.5301643837   -2.1693198796
     C    -2.0987924136   -1.3198212127   -3.2089901860
     H    -1.8747786284   -3.2027401723   -4.2481045308
     H     0.0303064328   -3.9455174321   -2.7787182750
     H     0.8088594302   -2.4385477013   -0.9638719729
     H    -2.0624588932    0.4356906676   -1.9527988288
     H    -2.9214553240   -0.9555790269   -3.8165903292
     C    -2.6757963049    4.0356721274    0.1619895945
     C    -1.3940736281    4.0513543784   -0.3983875192
     C    -0.6640584599    2.8718989436   -0.4271213887
     N    -1.1588401575    1.7071159773    0.0786984801
     C    -2.4034721549    1.6899766015    0.6259435844
     C    -3.1835110685    2.8360114353    0.6780348658
     H    -3.2709542382    4.9441564036    0.1962375405
     H    -0.9629219641    4.9594342551   -0.8076192344
     H     0.3363832268    2.8439265889   -0.8556948176
     H    -2.7619016257    0.7423952306    1.0133734784
     H    -4.1743676917    2.7883000028    1.1188490975
     C    -0.7740900337   -1.6060523132    4.1862728804
     C    -0.2972629722   -0.2991864001    4.0269187072
     C    -0.0773267008    0.1864844185    2.7461892434
     N    -0.3001596338   -0.5868011413    1.6484010406
     C    -0.7640820810   -1.8539659126    1.7931041058
     C    -1.0112983683   -2.3875029467    3.0519682320
     H    -0.9601428511   -2.0055989451    5.1795094998
     H    -0.1038840372    0.3439545130    4.8798882086
     H     0.2770868384    1.2006013979    2.5816219324
     H    -0.9297355052   -2.4275223018    0.8902704286
     H    -1.3828521677   -3.4044149940    3.1315923974
