31
-1.7492580901940134e+03 frame 43   xyz file generated by TeraChem
    Cr     0.2548836679   -0.1767727063   -0.3974415544
     S     2.5428324384    0.2422183850   -0.0520378102
     C     2.3601671234    1.5701310878    0.9763495075
     N     2.1457758420    2.4839221094    1.6747673763
     S    -1.0835309691   -1.5202751209   -1.7917261517
     C    -2.5120977732   -1.4749655033   -0.8921077123
     N    -3.4670031889   -1.3922507492   -0.2213516671
     C    -1.8131712705    4.0958803670   -1.0628987360
     C    -0.4565113093    3.9217564728   -1.3766395723
     C     0.1319743597    2.6885553098   -1.1490139082
     N    -0.5659734857    1.6435630268   -0.6400464781
     C    -1.8800342680    1.8027666068   -0.3449884104
     C    -2.5320688534    3.0095732996   -0.5370533496
     C    -2.4550644095    5.3573114878   -1.2777044473
     H     0.1340376153    4.7337369480   -1.7849639165
     H     1.1778934760    2.5153432636   -1.3679734872
     H    -2.4184577645    0.9381969241    0.0316796626
     H    -3.5837682798    3.0997527399   -0.2903740449
     N    -2.9775744789    6.3808425760   -1.4513515834
     C    -0.9691026482   -1.5629201518    4.0167593451
     C    -0.6108920246   -0.2313097948    3.7515120873
     C    -0.2743504385    0.1280834729    2.4568930451
     N    -0.2917445426   -0.7665553587    1.4388395405
     C    -0.6310268412   -2.0553714683    1.6889634772
     C    -0.9694603561   -2.4874413774    2.9608866449
     C    -1.3225649620   -1.9706895212    5.3427650769
     H    -0.5850804959    0.5106347117    4.5413244989
     H     0.0458826381    1.1388931185    2.2268988673
     H    -0.6294104598   -2.7417094434    0.8506266138
     H    -1.2356069591   -3.5253647754    3.1241906747
     N    -1.6103646916   -2.2996204824    6.4196708063
