29
-7.7679856844784513e+02 frame 52   xyz file generated by TeraChem
    Cr     0.1693126711   -0.1919964830   -0.1927966056
     O    -0.1868869934   -1.4066206961   -1.6051089723
     C    -0.9174184875   -2.4683576860   -1.5361432749
     C    -0.9988586398   -3.2717558963   -2.8118834988
     C    -1.6049392158   -2.8818181876   -0.3844456745
     C    -1.5797308069   -2.2072504509    0.8442365018
     O    -0.9075093683   -1.1258899876    1.0641928041
     C    -2.3590732678   -2.7283836954    2.0274444808
     H     0.0037190289   -3.6074356727   -3.1025152457
     H    -1.3730943253   -2.6386639745   -3.6247553155
     H    -1.6496519707   -4.1436198378   -2.7102210213
     H    -2.9445270719   -3.6171330106    1.7789249449
     H    -3.0328812330   -1.9475797175    2.3983964390
     H    -1.6711072452   -2.9738210537    2.8455199359
     H    -2.1961565269   -3.7881285066   -0.4503472735
     O     2.0261661002    0.0297469612    0.1132963398
     C     2.6574658461    1.1565891178    0.0730196031
     C     4.1425157932    1.0633846951    0.3281796062
     C     2.0509165889    2.3961815526   -0.1844890753
     C     0.6853178751    2.5932915413   -0.4403783174
     O    -0.1965139924    1.6484067550   -0.4749547528
     C     0.1450391579    3.9781512774   -0.7045158416
     H     4.3206601368    0.6053485148    1.3081618118
     H     4.6309898168    2.0403407043    0.2969858827
     H     4.6058561538    0.4093980453   -0.4200177936
     H     0.9182736499    4.7468180328   -0.6306079637
     H    -0.6544915761    4.2050756483    0.0102582209
     H    -0.3000129822    4.0172611611   -1.7060707832
     H     2.6896546134    3.2721386581   -0.1879559944
