9
-4.4831735093030170e+02 frame 44   xyz file generated by TeraChem
    Co     0.2396485409    0.1440973323   -0.3669573936
     O     2.1697328843   -0.0928485553   -0.0197875448
     H     2.1376249511   -0.1293904405    0.9517978548
     O    -0.4027728663   -1.2097058034   -1.6846287545
     H    -0.3623370341   -2.0033300324   -1.1227795613
     O    -0.5799134932    1.9355734986   -0.6218879486
     H    -0.9569358138    1.8965983048    0.2762927898
     O    -0.6762391228   -0.1586919971    1.4526691312
     H    -1.5689120614   -0.3823512503    1.1352530913
