49
-1.4473583791061833e+03 frame 29   xyz file generated by TeraChem
    Cr    -0.0698463903    0.0240417993    0.0392629786
     C     4.6492110439   -0.5432671199   -0.4972969288
     C     3.7613035382   -0.6365904693   -1.5977238593
     C     2.4003403796   -0.4906673011   -1.3822482043
     N     1.8753093039   -0.2530538823   -0.1358127144
     C     2.7365674876   -0.1515191615    0.9262241868
     C     4.1082983754   -0.2961282640    0.7862239940
     C     6.0539048841   -0.6949993065   -0.6812671555
     H     4.1363515107   -0.8275602400   -2.6017149471
     H     1.6978253373   -0.5671828972   -2.2116196977
     H     2.2943116155    0.0393802928    1.9004015532
     H     4.7541905789   -0.2182458633    1.6589674477
     N     7.2082517692   -0.8192465748   -0.8338016676
     C    -2.3976314864   -2.8359936571   -2.9973696727
     C    -1.1877102247   -3.2589483311   -2.3915901660
     C    -0.5243595384   -2.3985337897   -1.5316432175
     N    -1.0042071856   -1.1461948462   -1.2390287379
     C    -2.1775328416   -0.7389619000   -1.8190327276
     C    -2.8889937536   -1.5442257867   -2.6957166535
     C    -3.1015151509   -3.6950381145   -3.8900133969
     H    -0.7755889395   -4.2448963573   -2.5997032430
     H     0.4095009909   -2.6950921108   -1.0554400837
     H    -2.5296150337    0.2599844516   -1.5693377885
     H    -3.8127801795   -1.1794193177   -3.1411605401
     N    -3.6791198573   -4.4026153643   -4.6227018510
     C    -1.0322948666    4.6082291369   -0.8879322059
     C     0.0758272071    3.9722486547   -1.4953230150
     C     0.3501718713    2.6483226911   -1.1879832584
     N    -0.4136554731    1.9308531918   -0.3030420013
     C    -1.4873746934    2.5467818097    0.2900489264
     C    -1.8231005843    3.8642100244    0.0216645707
     C    -1.3452436794    5.9671551303   -1.1814177406
     H     0.7127055390    4.5097451462   -2.1955899423
     H     1.2018043027    2.1402889330   -1.6353851094
     H    -2.0744574581    1.9544655205    0.9903750692
     H    -2.6828130128    4.3165444756    0.5129787310
     N    -1.6035710468    7.0833429408   -1.4226636287
     C    -1.2792108846   -1.3242116869    4.4556087772
     C    -0.7472348610   -0.0372870502    4.1933813932
     C    -0.4434434240    0.3150923882    2.8882781134
     N    -0.6343336298   -0.5431312541    1.8362618847
     C    -1.1428550943   -1.7901181530    2.0863135305
     C    -1.4762510861   -2.2052501964    3.3681431539
     C    -1.6090303291   -1.7174757842    5.7852793377
     H    -0.5831552256    0.6737039358    5.0012308462
     H    -0.0390897136    1.3010680697    2.6592631543
     H    -1.2920232569   -2.4497887937    1.2348235797
     H    -1.8868766463   -3.2011294505    3.5245524509
     N    -1.8786464990   -2.0393893724    6.8780859101
