13
-4.0838839005423927e+02 frame 40   xyz file generated by TeraChem
    Mn     0.0014129521   -0.0009123094    0.0024400318
     O     1.6634169771   -0.9557996041   -0.0403535596
     H     2.3631715641   -0.8713334895   -0.7411531830
     H     1.9782614028   -1.6188059120    0.6299780247
     O    -0.2719732757   -0.3337196851   -1.8675162513
     H    -0.4907875748    0.3578126645   -2.5469899177
     H    -0.1581650380   -1.2049113994   -2.3332601389
     O    -1.6296539625    1.0064505757    0.0061995202
     H    -1.8193361464    1.8091343123    0.5605559208
     H    -2.4671383144    0.7507896524   -0.4633310082
     O     0.2202436409    0.3102759043    1.8816893606
     H     1.0709802179    0.5800643885    2.3185775091
     H    -0.4606364499    0.1707325816    2.5932069928
