75
-2.5122160004342218e+03 frame 1000   xyz file generated by TeraChem
    Mn   -34.8445715700   51.5346203775  -49.6751893584
     O   -33.2138374534   51.7242120248  -48.8049713306
     N   -30.9558578798   52.3651318780  -49.4811941365
     C   -32.0319650990   52.0389863895  -49.1484171168
     O   -36.4881738228   50.7138566801  -49.9762831565
     N   -37.4637974181   49.8214330020  -52.0327975235
     C   -37.0076290332   50.2382481112  -51.0359141865
     C   -33.1014284908   55.0684146368  -50.3868986954
     C   -34.3079118141   54.8888110380  -51.0997099439
     P   -34.8173130314   53.2401137634  -51.6174663271
     C   -36.4444929421   53.2385988082  -52.3809217286
     C   -37.5658742248   53.5806261829  -51.5944962823
     C   -38.8310668193   53.5967978595  -52.1681715022
     C   -38.9917036607   53.2631033919  -53.5185787562
     C   -37.8855182173   52.9184073823  -54.2986916127
     C   -36.6117807666   52.8960794522  -53.7373675631
     C   -33.5995745155   52.3396864793  -52.5937761740
     C   -33.9274058607   51.0177167206  -52.9850470668
     C   -32.9893258955   50.2537218100  -53.6702052532
     C   -31.7263658308   50.7862548547  -53.9600423212
     C   -31.4008261491   52.0889035535  -53.5719896139
     C   -32.3261539842   52.8686210606  -52.8825602753
     C   -35.1337959993   55.9976368544  -51.3834114652
     C   -34.7412700714   57.2683082752  -50.9749889730
     C   -33.5427561469   57.4449216956  -50.2758613979
     C   -32.7252340660   56.3466662874  -49.9874955913
     H   -32.4483714734   54.2321965824  -50.1576418052
     H   -37.4512588612   53.8224161466  -50.5410780443
     H   -39.6942045746   53.8558269900  -51.5633197766
     H   -39.9837793784   53.2645811554  -53.9595101006
     H   -38.0142815308   52.6602957158  -55.3448771969
     H   -35.7568501489   52.6281900202  -54.3481867382
     H   -34.9145063430   50.6018920507  -52.7893146023
     H   -33.2430223867   49.2450960931  -53.9811408821
     H   -30.9958850458   50.1824709170  -54.4897574895
     H   -30.4223352544   52.4983030047  -53.8010595676
     H   -32.0669330955   53.8775799750  -52.5834390669
     H   -36.0602316996   55.8701349442  -51.9316243315
     H   -35.3689775389   58.1229936136  -51.2068666639
     H   -33.2448935282   58.4391526888  -49.9568271405
     H   -31.7931889177   56.4832855443  -49.4482752867
     C    32.9288780135  -51.9191241013   51.7985522245
     C    32.3517195514  -52.2380792232   53.0482171527
     P    32.5248940446  -51.0660816461   54.3912012561
     C    31.4628519272  -51.4077076299   55.7908230729
     C    30.0673926697  -51.4581492225   55.5734964622
     C    29.2102324319  -51.6968803703   56.6417748122
     C    29.7279151935  -51.8678986712   57.9304511170
     C    31.1073436555  -51.8026291853   58.1534235501
     C    31.9784184286  -51.5666941938   57.0942999383
     C    34.2234029668  -50.7089096905   54.8297150034
     C    34.4804025299  -49.6348040236   55.7114107930
     C    35.7910013938  -49.3170780334   56.0495059230
     C    36.8524313246  -50.0455563500   55.5008935568
     C    36.6040464283  -51.0976285853   54.6132541715
     C    35.2979720113  -51.4307369395   54.2684403873
     C    31.6107447738  -53.4292657676   53.1974695339
     C    31.4788066208  -54.2963600894   52.1173087062
     C    32.0653870481  -53.9836726843   50.8866526663
     C    32.7904766587  -52.7974198816   50.7293519889
     H    33.4750966643  -50.9894736998   51.6662704683
     H    29.6602828224  -51.3079664780   54.5776283122
     H    28.1387445759  -51.7392780668   56.4735198739
     H    29.0545640069  -52.0483563999   58.7629356326
     H    31.5045889128  -51.9429513428   59.1539142899
     H    33.0480549803  -51.5261702534   57.2694981674
     H    33.6606946645  -49.0525062405   56.1223255650
     H    35.9875694066  -48.4947774240   56.7302229570
     H    37.8747567834  -49.7898004806   55.7624324415
     H    37.4303150825  -51.6638478765   54.1946940615
     H    35.1102983816  -52.2547955728   53.5885518608
     H    31.1619915132  -53.6801570729   54.1524574323
     H    30.9226167605  -55.2209190488   52.2367844356
     H    31.9543312078  -54.6634996158   50.0473287294
     H    33.2366071959  -52.5533460304   49.7703972801
