15
-3.6887688631658273e+02 frame 143   xyz file generated by TeraChem
    Cr     0.1541388214    0.2890098469    0.2596845626
     C     4.8976085402   -0.2525106266   -0.1725563994
     C     4.0573955054   -0.2979236944   -1.2848379045
     C     2.6878072849   -0.1536687584   -1.1041934038
     N     2.1454817037    0.0292628552    0.1204720961
     C     2.9583837121    0.0794312684    1.1976803091
     C     4.3356011495   -0.0600077593    1.0888926733
     H     5.9716188246   -0.3643873076   -0.2870522611
     H     4.4494091973   -0.4440261708   -2.2853446406
     H     2.0015268597   -0.1891223717   -1.9429629415
     H     2.4667577676    0.2292883344    2.1509216897
     H     4.9476000445   -0.0159215336    1.9830494018
     I    -0.9691787078   -1.3011463766   -1.4588015777
     I     0.0279722762    2.8041417651   -0.3919195111
     I    -0.6022048485   -0.6537200915    2.5576781949
