13
-3.8784052385298958e+02 frame 26   xyz file generated by TeraChem
    Fe    -0.1850380384   -0.1323107080    0.1430605364
     O     2.0536524987   -0.1659767629    0.0657656494
     C     2.9034756312    0.3083958653    1.0406866003
     C     4.1613733618    0.3885443484    0.5428071270
     C     4.0968235335   -0.0585135739   -0.8244167368
     C     2.8038604672   -0.3820953196   -1.0700345984
     H     2.4352252532    0.5068548656    1.9916863608
     H     5.0371099885    0.7234602848    1.0813311039
     H     2.2487673760   -0.7635672972   -1.9123191090
     H     4.9138916677   -0.1294240621   -1.5290580930
     I    -0.7172738218   -1.9567785747   -1.7529864797
     I    -0.7483658452    2.3922553974   -0.5175685510
     I    -0.4732635622   -0.7298921240    2.7431679879
