115
-3.8589567735388823e+03 frame 79   xyz file generated by TeraChem
    Mn    -0.0157629301    0.1538310600   -0.3233954664
     C     1.6899136450   -3.0782618456    0.7937250124
     C     2.4576682606   -2.0659306920    1.3923927840
     P     2.4545007686   -0.3972495349    0.6252125448
     C     2.9762282604    0.7535658990    1.9661885696
     C     2.2556743803    0.7805462295    3.1739155656
     C     2.6388087140    1.6383020496    4.2037335922
     C     3.7382432821    2.4856259433    4.0406017489
     C     4.4521253623    2.4713844113    2.8418919230
     C     4.0754336491    1.6109370872    1.8071090843
     C     3.8353098578   -0.3867636901   -0.5852160682
     C     3.8391072337    0.5914446310   -1.5937182524
     C     4.8998771468    0.6712114830   -2.4963931425
     C     5.9601407716   -0.2339293720   -2.4080727232
     C     5.9577099232   -1.2162289910   -1.4147695323
     C     4.9037067366   -1.2942014255   -0.5032000435
     C     3.2234155756   -2.3706165460    2.5293822770
     C     3.2174560499   -3.6656595270    3.0511507754
     C     2.4493018667   -4.6650826705    2.4497731002
     C     1.6846343190   -4.3703295263    1.3186577315
     H     1.1006278331   -2.8652075660   -0.0949003209
     H     1.4161684772    0.1088563429    3.3273501480
     H     2.0866364639    1.6370902790    5.1390888805
     H     4.0423103071    3.1446388108    4.8485024975
     H     5.3162458418    3.1166083614    2.7125712745
     H     4.6514699766    1.6015940958    0.8878979853
     H     3.0177929721    1.2984337229   -1.6771042492
     H     4.8936704214    1.4372134931   -3.2661031110
     H     6.7864116379   -0.1737556283   -3.1102076057
     H     6.7808288955   -1.9209252231   -1.3435462128
     H     4.9182577296   -2.0577566914    0.2677703247
     H     3.8195266599   -1.6013754096    3.0094266243
     H     3.8167396382   -3.8928165261    3.9278479190
     H     2.4485378659   -5.6703890689    2.8604313510
     H     1.0824477329   -5.1402089238    0.8454487260
     C    -2.2434630318    0.1562747066   -4.0434314296
     C    -2.4603352057   -0.9491179132   -3.2036228121
     P    -1.0548944312   -1.5319746979   -2.1658101293
     C    -1.6834645829   -3.0134758785   -1.2683711292
     C    -2.6956442743   -2.8451258096   -0.3054861545
     C    -3.1955221143   -3.9425928097    0.3955240679
     C    -2.6812260568   -5.2199519424    0.1561753798
     C    -1.6706650634   -5.3943920494   -0.7903354970
     C    -1.1729475982   -4.2995065124   -1.5026375058
     C     0.1675976198   -2.1517515420   -3.3825535109
     C     1.5400208993   -1.9776392055   -3.1533154276
     C     2.4774437914   -2.4721561770   -4.0627895750
     C     2.0487903353   -3.1409965725   -5.2096366944
     C     0.6820517623   -3.3118155294   -5.4502879256
     C    -0.2566075347   -2.8184943958   -4.5460201020
     C    -3.6998176286   -1.6046765788   -3.2409506869
     C    -4.7036181092   -1.1567386716   -4.1032669187
     C    -4.4789662922   -0.0618841166   -4.9374623352
     C    -3.2448803076    0.5923373254   -4.9077934374
     H    -1.2872523087    0.6711881550   -4.0430901402
     H    -3.1161359962   -1.8590503591   -0.1205319381
     H    -3.9942667246   -3.8032084407    1.1185621533
     H    -3.0742563483   -6.0751579029    0.6978192596
     H    -1.2776437570   -6.3869394962   -0.9910849028
     H    -0.3996613278   -4.4538999566   -2.2477794562
     H     1.8906456598   -1.4511915268   -2.2704651879
     H     3.5368007148   -2.3292577787   -3.8732444025
     H     2.7758306351   -3.5253367031   -5.9188986045
     H     0.3465553359   -3.8266832148   -6.3455311021
     H    -1.3157620561   -2.9477789405   -4.7467964704
     H    -3.8846334249   -2.4716373435   -2.6168412949
     H    -5.6566972652   -1.6767443440   -4.1296002716
     H    -5.2586248947    0.2770048580   -5.6131441036
     H    -3.0602168428    1.4423842143   -5.5574625154
     C    -3.1407122381    2.0947026239   -1.1372412593
     C    -2.1305788340    2.8846918548   -1.7090903094
     P    -0.4012903504    2.6417290968   -1.1534525874
     C     0.6875751267    3.1715565393   -2.5315217502
     C     1.1362708440    2.2164843576   -3.4593537248
     C     1.9133286587    2.6041421805   -4.5521874575
     C     2.2590351339    3.9468965431   -4.7211195747
     C     1.8327188380    4.8996450783   -3.7926010355
     C     1.0519409628    4.5177336811   -2.7010430319
     C    -0.1364023773    3.8747015862    0.1859755440
     C     1.1178267571    3.9138822815    0.8200123793
     C     1.3604399064    4.8261111969    1.8450629964
     C     0.3518948291    5.7019536903    2.2567666634
     C    -0.8974400761    5.6649508882    1.6364554758
     C    -1.1455801886    4.7573972208    0.6033041536
     C    -2.4766817795    3.8733470396   -2.6432856385
     C    -3.8142415129    4.0726260641   -2.9862539337
     C    -4.8145153582    3.2915719254   -2.4022339701
     C    -4.4772995913    2.3013832321   -1.4772765288
     H    -2.8873970337    1.3167793971   -0.4194623836
     H     0.8894401742    1.1649528352   -3.3296813255
     H     2.2482833562    1.8584200173   -5.2673055689
     H     2.8627353419    4.2501135762   -5.5713046734
     H     2.1071748148    5.9428199923   -3.9176503413
     H     0.7324207518    5.2651959447   -1.9813587517
     H     1.9153790439    3.2454853225    0.5071528591
     H     2.3351693333    4.8482857406    2.3221706262
     H     0.5418604234    6.4130343448    3.0552316070
     H    -1.6809453580    6.3501168199    1.9466529311
     H    -2.1176086779    4.7497522078    0.1210986714
     H    -1.7071486224    4.4870013373   -3.1011352467
     H    -4.0752696779    4.8412653956   -3.7076389680
     H    -5.8545538612    3.4528195249   -2.6696157238
     H    -5.2524247871    1.6870507900   -1.0289616580
     C    -2.1398140827   -0.2315716218    4.1598236964
     C    -1.6917317596   -1.3653170463    3.4577105950
     C    -1.1362778769   -1.2118552151    2.1989498870
     N    -0.9918518937   -0.0095566447    1.5913674828
     C    -1.4159123323    1.0839073935    2.2731337885
     C    -1.9851680385    1.0189911010    3.5305820440
     S    -2.8676788918   -0.2770476328    5.7557571727
     H    -1.7729314080   -2.3618022826    3.8788959035
     H    -0.7898967542   -2.0799220880    1.6499690992
     H    -1.2746548713    2.0430893906    1.7871209448
     H    -2.3026498493    1.9351025986    4.0178580758
     H    -2.8023272585   -1.6132394862    5.9271322048
