15
-1.7329139469259749e+03 frame 29   xyz file generated by TeraChem
    Mn     0.1918307527    0.3046609565    0.3539698340
     C     4.8234598116   -0.3419185723   -0.2918490505
     C     4.1314082767    0.6131743430   -1.0356653469
     C     2.7743832802    0.7964839547   -0.8043579558
     N     2.1107173523    0.0724805872    0.1225997140
     C     2.7747781980   -0.8532352522    0.8478487491
     C     4.1317741768   -1.0845252418    0.6644779093
     H     5.8848122480   -0.5040537979   -0.4539384596
     H     4.6283758509    1.2155832456   -1.7880442486
     H     2.1901840801    1.5306959973   -1.3456567903
     H     2.1908453937   -1.3934094632    1.5830867132
     H     4.6291085068   -1.8359320407    1.2677945772
    Cl    -0.4614000759   -1.1560668094   -1.1077548454
    Cl    -0.1465024618    2.4207112621   -0.0416619654
    Cl    -0.1455211332   -0.0904731802    2.4702944961
