21
-1.5693337924804057e+03 frame 149   xyz file generated by TeraChem
    Fe     0.1631304785    0.4249035378   -0.4053196104
     C     4.3867541903   -1.2847522883    0.9236932997
     C     4.2821526794   -0.0417113673    0.2932416945
     C     3.0245526009    0.4305256796   -0.0584921589
     N     1.8965478796   -0.2823711473    0.1838606135
     C     1.9973230304   -1.4900355142    0.7925243459
     C     3.2239756916   -2.0167178619    1.1778036975
     H     5.3576868476   -1.6751221088    1.2135854033
     H     5.1590244652    0.5598460414    0.0778794576
     H     2.9040566060    1.3974441696   -0.5410352998
     H     1.0738354558   -2.0350831469    0.9698615814
     H     3.2594974548   -2.9846965746    1.6665854878
     S     0.1820800590   -1.2205869818   -2.1842938457
     H     1.4038399515   -1.0473108383   -2.7327602845
     H    -0.4991147238   -0.7016590247   -3.2293257421
     S    -1.8998714638    1.3779917810   -1.3451552548
     H    -1.6186711020    2.6950287055   -1.4747614001
     H    -2.7492737383    1.5416421415   -0.3053472385
     S    -0.1063058086    1.5558921102    1.7165418645
     H    -0.2066904419    2.8714098489    1.4245614920
     H     1.1466827334    1.6410621379    2.2110319432
