35
-1.2909277535816552e+03 frame 35   xyz file generated by TeraChem
    Cr    -0.1139306455   -0.1291275961   -0.0385242581
     C     4.6376116245   -0.3173099622    0.1051009416
     C     3.9901138231    0.2645811210   -0.9906385748
     C     2.6054819731    0.2940218821   -1.0139487801
     N     1.8604208732   -0.2311505073   -0.0058240611
     C     2.4878823330   -0.7968533704    1.0619521709
     C     3.8722241205   -0.8531266542    1.1427227314
     H     5.7221791066   -0.3497289224    0.1478038248
     H     4.5494857024    0.6937284149   -1.8150004670
     H     2.0637931077    0.7460753679   -1.8383907145
     H     1.8551997989   -1.2053799292    1.8411001417
     H     4.3346278230   -1.3129526656    2.0096562679
     C    -1.9553409805   -2.6613533987   -3.5963681698
     C    -0.6541893670   -2.9191222223   -3.1548800742
     C    -0.1059515238   -2.1132759231   -2.1682744542
     N    -0.7955977451   -1.0720582867   -1.6339390201
     C    -2.0607514025   -0.8212482826   -2.0615679301
     C    -2.6679091054   -1.5960025495   -3.0378598237
     H    -2.4099328923   -3.2851736725   -4.3601119265
     H    -0.0720698394   -3.7393765453   -3.5610390557
     H     0.8928283666   -2.2914248236   -1.7836541483
     H    -2.5775342207    0.0128701306   -1.5970619057
     H    -3.6819232551   -1.3680912960   -3.3483979696
     C    -0.9606156739    4.5183753936   -0.7535525504
     C    -0.7919974299    3.7051141558   -1.8795010490
     C    -0.5472481744    2.3524542536   -1.7024662778
     N    -0.4625223086    1.7946909470   -0.4667638733
     C    -0.6231590375    2.5865027991    0.6265634253
     C    -0.8751447882    3.9472263272    0.5180702388
     H    -1.1577010801    5.5801384744   -0.8673377144
     H    -0.8534261110    4.1118709738   -2.8833149202
     H    -0.4190644734    1.6822755229   -2.5453516232
     H    -0.5622345738    2.1034297942    1.5981960959
     H    -1.0046941021    4.5408704622    1.4166269987
    Cl    -1.0053350820   -1.0251790769    1.7014615563
