31
-9.8678560548416988e+02 frame 88   xyz file generated by TeraChem
    Co     0.1006585704   -0.1151541679   -0.0925530383
     O    -1.6193491759   -0.3947482934   -0.9317864629
     C    -2.1299213893   -1.5505212944   -0.5579844943
     C    -1.3378889681   -2.3349201838    0.3601168120
     C    -1.8177343391   -3.5715645297    0.8008623478
     C    -3.0680279683   -4.0780365682    0.3686864591
     C    -3.8267584432   -3.3138468299   -0.5172244335
     C    -3.3668489744   -2.0627116010   -0.9785224865
     O    -0.1761514770   -1.8050748467    0.7275917619
     H    -1.2009813703   -4.1447825169    1.4955201853
     H    -4.7934199974   -3.6906073082   -0.8607975085
     H    -3.9657782232   -1.4704342404   -1.6709700994
     C    -3.5575022689   -5.4211725634    0.8621257383
     H    -3.6439222431   -5.4645211203    1.9612920927
     H    -2.8863213502   -6.2507262959    0.5800363189
     H    -4.5497757917   -5.6588808107    0.4527571266
     O     1.8201642160    0.1648291694    0.7477070729
     C     2.3287400199    1.3227221093    0.3777332827
     C     1.5371999381    2.1069258810   -0.5408005480
     C     2.0154721721    3.3452575403   -0.9784969709
     C     3.2632264429    3.8541220576   -0.5418271515
     C     4.0213818649    3.0902410714    0.3448758935
     C     3.5631942338    1.8371927813    0.8026913647
     O     0.3774331876    1.5751964325   -0.9119423120
     H     1.3993581822    3.9180046182   -1.6740994779
     H     4.9860233231    3.4689179598    0.6919974381
     H     4.1617383827    1.2450497720    1.4955706303
     C     3.7509275644    5.1991821135   -1.0317338949
     H     3.8413641942    5.2442315541   -2.1305242558
     H     4.7410168935    5.4390569759   -0.6183651435
     H     3.0764349121    6.0265445647   -0.7511285280
