13
-8.4353992464103578e+02 frame 76   xyz file generated by TeraChem
    Fe     0.2036959480    0.2164852181    0.1652921056
     S     2.2420188601   -0.0746773878    1.1154189929
     C     2.9182770322   -1.1077463693   -0.0395033985
     N     3.2384610604   -1.8305610144   -0.9028977483
     O     0.4452815690   -1.0845569995   -1.2900412560
     H     1.3270789790   -1.5319673564   -1.3866927559
     H    -0.2485119506   -1.6966401462   -1.5910337295
     O    -1.4851967628    0.8441671451   -0.7103630082
     H    -1.5442312174    0.9380354958   -1.6771766954
     H    -2.0065014562    1.5629904261   -0.3109385895
     O    -0.3755586555    1.2349512312    1.8328965189
     H    -0.6953797518    0.6824920986    2.5709180713
     H     0.2772803173    1.8469262401    2.2239936142
