41
-1.1596651831614899e+03 frame 59   xyz file generated by TeraChem
    Ni    -0.0869474724    0.0593445187    0.2321769179
     N    -1.0699216653   -0.9843748881   -1.1793395416
     N    -0.5587275350   -1.5426806038    1.3488245877
     C    -1.2630410438   -0.6003130346   -2.4514299092
     H    -0.8389710917    0.3566295343   -2.7378698170
     C    -1.9692295425   -1.3844456431   -3.3591050446
     H    -2.1074854488   -1.0425689596   -4.3788906920
     C    -2.4843537038   -2.6041915104   -2.9215759470
     H    -3.0398886915   -3.2438641847   -3.6002857737
     C    -2.2807193465   -3.0015715828   -1.5990296991
     H    -2.6785520694   -3.9478337573   -1.2524808365
     C    -1.7340743876   -3.6256284155    1.3441135694
     H    -2.3209393661   -4.3727096142    0.8231438903
     C    -1.4218412829   -3.8061271063    2.6929695448
     H    -1.7650000958   -4.6942557576    3.2144371368
     C    -0.6706279670   -2.8385600017    3.3597987025
     H    -0.4108077171   -2.9429507749    4.4074463996
     C    -0.2560125523   -1.7175342462    2.6480496212
     H     0.3314156671   -0.9355181802    3.1199609771
     C    -1.5651532380   -2.1698480558   -0.7373174337
     C    -1.2898905298   -2.4785293616    0.6866701689
     N     1.8874409622    0.1636996760   -0.1533790394
     N     0.0158162353    2.0325260550   -0.1449022270
     C     2.7488964553   -0.8660587623   -0.1504073116
     H     2.3324910700   -1.8414569364    0.0779042257
     C     4.1032702846   -0.6960564267   -0.4214709947
     H     4.7710361998   -1.5504217416   -0.4096324628
     C     4.5660655620    0.5887513078   -0.7035013256
     H     5.6157011177    0.7619221895   -0.9195747280
     C     3.6679052181    1.6573845516   -0.7079561076
     H     4.0213889703    2.6576983961   -0.9276607407
     C     1.5181035716    3.8266464760   -0.6390021742
     H     2.5197961258    4.1834165804   -0.8465427601
     C     0.4551452874    4.7307612088   -0.5949623570
     H     0.6343843811    5.7869560802   -0.7704564025
     C    -0.8314558023    4.2658987446   -0.3232259132
     H    -1.6812455832    4.9380706031   -0.2786447782
     C    -1.0086226864    2.9039078896   -0.1034896257
     H    -1.9884577759    2.4897615991    0.1139974066
     C     2.3212281310    1.4211871930   -0.4291882108
     C     1.2751657856    2.4723321100   -0.4096730108
