37
-1.6810313355858329e+03 frame 67   xyz file generated by TeraChem
    Fe    -0.1477674824    0.1612839782    0.0462676893
     C     3.0052421328    0.5332245295   -0.4595101971
     N     1.8585917175    0.4816184360   -0.2769130752
     C     4.4369462437    0.5962374828   -0.6880828469
     H     4.9675318312    0.5975288147    0.2711441225
     H     4.6861769822    1.5111450319   -1.2384264484
     H     4.7556028278   -0.2729660777   -1.2756908565
     C    -1.1275842201   -1.9195672789   -2.2010885651
     N    -0.8143303655   -1.2102377978   -1.3352485810
     C    -1.5192966175   -2.8071714490   -3.2802203364
     H    -0.6276956190   -3.2477327350   -3.7416224755
     H    -2.0793318158   -2.2463277699   -4.0377191511
     H    -2.1548574855   -3.6099210786   -2.8877343900
     C    -2.4239956443    4.4177034320   -0.7187750349
     C    -1.1707971389    4.1538183611   -1.3153237222
     C    -0.5375687474    2.9526234003   -1.0431583191
     N    -1.0673227389    2.0057082998   -0.2267787558
     C    -2.2684344338    2.2624957661    0.3528995611
     C    -2.9724854606    3.4334919627    0.1377947809
     S    -3.3436566661    5.8791782976   -0.9618295175
     H    -0.6929337180    4.8655157964   -1.9808407229
     H     0.4276301353    2.7332044943   -1.4880658846
     H    -2.6738998678    1.4958578442    1.0060484337
     H    -3.9308450347    3.5793790038    0.6266221320
     H    -2.4808804220    6.5006557633   -1.7979914143
     C    -0.7227660985   -1.9014527369    4.4431918467
     C    -0.2264858154   -0.5842871839    4.3115904178
     C    -0.1176764821   -0.0332496301    3.0470556234
     N    -0.4655306746   -0.7000941532    1.9150344213
     C    -0.9450371300   -1.9635725678    2.0409603716
     C    -1.0883208780   -2.5939519214    3.2650148300
     S    -0.9190519396   -2.7361701999    5.9614370206
     H     0.0722482585    0.0032644535    5.1737016376
     H     0.2635481179    0.9765986617    2.9267712218
     H    -1.2141473328   -2.4794744562    1.1253098493
     H    -1.4740919260   -3.6081637382    3.3023455915
     H    -0.4651320194   -1.7516569625    6.7702862721
