48
-2.2907592920124216e+03 frame 59   xyz file generated by TeraChem
    Mn    -0.0812127341    0.0476013530    0.0473797141
     C     4.5634437245    0.8323015121    0.6152789920
     C     3.7621915095    1.7068621378   -0.1224739032
     C     2.4062472605    1.4373897752   -0.2476823261
     N     1.8307020126    0.3490648457    0.3327758379
     C     2.6131779787   -0.5016868451    1.0534965645
     C     3.9745049150   -0.2902372326    1.2093188303
     H     5.6274313612    1.0199903672    0.7270198640
     H     4.1769856175    2.5902814457   -0.5966866486
     H     1.7525491312    2.0952392943   -0.8096133942
     H     2.1230208814   -1.3595306876    1.5020750336
     H     4.5615449830   -0.9944619347    1.7899647218
     C    -0.7420745083   -3.3639088507   -3.1912898624
     C     0.4736217140   -3.2410591224   -2.4730413197
     C     0.6337628056   -2.2215744150   -1.5630050005
     N    -0.3359244939   -1.2890543277   -1.3126772330
     C    -1.5159360246   -1.3999936750   -2.0033510452
     C    -1.7471954807   -2.3962649447   -2.9196497753
     S    -1.0857866224   -4.5888515634   -4.3626382400
     H     1.2927287157   -3.9360896661   -2.6258121126
     H     1.5628117800   -2.1206952435   -1.0131469173
     H    -2.2734504323   -0.6506998525   -1.7994152811
     H    -2.7028770717   -2.4278384107   -3.4338625479
     H     0.0974664423   -5.2349802997   -4.2898321037
     C    -2.1918189316    3.9727621432   -1.5924709051
     C    -1.5075175456    3.0958334996   -2.4745020353
     C    -0.9310893789    1.9442854132   -1.9906552994
     N    -0.9805905247    1.5910875723   -0.6682737987
     C    -1.6329759718    2.4367094503    0.1922808048
     C    -2.2364772890    3.5984193156   -0.2241523359
     S    -2.9654539029    5.4463857672   -2.0634218411
     H    -1.4288716488    3.3120305185   -3.5350759740
     H    -0.4086751354    1.2661437910   -2.6579761487
     H    -1.6674966346    2.1442212227    1.2366711768
     H    -2.7460870552    4.2183208432    0.5069076864
     H    -2.6715005298    5.3829690065   -3.3795675911
     C    -1.7064736865   -1.2772870299    4.2971524745
     C    -2.2430750599   -1.7973954730    3.0914318603
     C    -1.7180417082   -1.4062286815    1.8823440574
     N    -0.6722463510   -0.5279320797    1.7759136156
     C    -0.1477404451   -0.0186499233    2.9367830217
     C    -0.6280330810   -0.3588510648    4.1770631237
     S    -2.2619558025   -1.6766895228    5.8844338972
     H    -3.0637049233   -2.5072619338    3.0990378210
     H    -2.1172939773   -1.8028979552    0.9544904021
     H     0.6755548994    0.6799268582    2.8344028240
     H    -0.1704957221    0.0801370164    5.0583918048
     H    -3.2366517813   -2.5354903077    5.5164046040
