9
-6.2185567591773929e+02 frame 24   xyz file generated by TeraChem
    Ni    -0.0032063468   -0.0004664225    0.0006521941
     C     2.1231701390    0.1741246965    0.0130292409
     O     3.2436687475    0.2258270104    0.0235145162
     C    -0.8412731275   -1.3608393678   -1.4115645215
     O    -1.2691909735   -2.0557675935   -2.1810648517
     C    -0.3764022154    2.0745593775   -0.3171170945
     O    -0.6091501295    3.1594604155   -0.4817076154
     C    -0.9054325412   -0.8888327415    1.7143518917
     O    -1.3622959376   -1.3281080153    2.6398753688
