11
-1.6081533554924454e+03 frame 16   xyz file generated by TeraChem
    Fe     0.2980393641    0.3827034520   -0.2963387219
     N     2.1104020321    0.0564573357    0.0128558817
     C     3.1819074177   -0.3804426568    0.2980471592
     S     4.6564114836   -0.9223992047    0.6597056475
     N    -0.2100830744   -0.8320506931   -1.6002432296
     C    -0.6983527331   -1.7223373804   -2.2214074904
     S    -1.3318593810   -2.9114607726   -3.1090866207
     N    -0.6848374780    1.9221760226   -0.6713740585
     C    -1.5287327708    2.7436680141   -0.8535525516
     S    -2.6259100163    3.8947876645   -1.1164324296
     I    -0.6455653018   -0.1356105991    2.0730976469
