38
-2.5035276360522794e+03 frame 51   xyz file generated by TeraChem
    Mn    -0.0110283898    0.1337880640   -0.2566041289
     C     4.8017490452   -0.8707679092    0.5055891792
     C     4.4060439384   -0.3388969410   -0.7342097543
     C     3.0667688518   -0.0652323714   -0.9532071312
     N     2.1021331131   -0.2836191688   -0.0346117439
     C     2.4839900626   -0.7927283865    1.1615720543
     C     3.8000099558   -1.0958819228    1.4654070660
     S     6.4653303430   -1.2645511168    0.9227394893
     H     5.1262597137   -0.1363657639   -1.5199591378
     H     2.7476760816    0.3507252583   -1.9052425292
     H     1.6936881265   -0.9508535384    1.8902618659
     H     4.0403185972   -1.5014553702    2.4427021942
     H     7.0193186530   -0.8902027492   -0.2485408171
     C    -2.4587775405   -2.8844263226   -3.3629214658
     C    -1.2652707055   -2.2772489348   -3.7914831916
     C    -0.5873986287   -1.4388096901   -2.9231340565
     N    -1.0097640275   -1.1637103204   -1.6709491441
     C    -2.1570886286   -1.7528628949   -1.2561587854
     C    -2.8989513061   -2.6027783414   -2.0581991618
     S    -3.4246181370   -3.9690869775   -4.3565788895
     H    -0.8641435765   -2.4528691067   -4.7841951221
     H     0.3385897930   -0.9658008168   -3.2401391889
     H    -2.4698353311   -1.5298242876   -0.2402813352
     H    -3.8098305128   -3.0432579942   -1.6662679687
     H    -2.6355369641   -3.9337102556   -5.4498177973
     C    -0.7157877272    4.9839322302   -1.1557755743
     C    -0.3663053537    4.1363635022   -2.2214816071
     C    -0.1775162884    2.7873936570   -1.9740987190
     N    -0.3105362964    2.2272088397   -0.7534221920
     C    -0.6529384330    3.0429297649    0.2723268707
     C    -0.8592739350    4.4029354300    0.1159080485
     S    -0.9853620945    6.7153655528   -1.3225021013
     H    -0.2447998851    4.5148399817   -3.2309829148
     H     0.0830015811    2.1174688022   -2.7890487101
     H    -0.7753958142    2.5697523745    1.2424527645
     H    -1.1346191140    5.0015561757    0.9780592588
     H    -0.7535951705    6.7866883417   -2.6491109200
    Cl    -1.0324643514   -0.1978576565    1.7934858011
