29
-9.1889911895605132e+02 frame 76   xyz file generated by TeraChem
    Cr     0.5576331368   -0.5777954152   -0.8909671423
     C     4.6405779561    1.4934375735    0.8267005357
     C     4.4034934961    1.4186995548   -0.5552146866
     C     3.2249566650    0.8374239863   -0.9962932623
     N     2.2988000639    0.3366037249   -0.1471536884
     C     2.5244448185    0.4119746389    1.1835158157
     C     3.6776423928    0.9794436418    1.7076172625
     C     5.8446071165    2.0884981406    1.3266814061
     H     5.1220222282    1.8086078930   -1.2669440052
     H     2.9973116613    0.7682217653   -2.0550056682
     H     1.7445615239    0.0092447770    1.8199593050
     H     3.8237464532    1.0242778718    2.7807432100
     N     6.8213270534    2.5716220066    1.7305233703
     C    -1.8928227762   -4.1655441185   -3.1236143754
     C    -1.4092568480   -4.3265237803   -1.8154183627
     C    -0.7431479093   -3.2673325748   -1.2188030196
     N    -0.5378972208   -2.0893895932   -1.8512514060
     C    -1.0091350108   -1.9307090391   -3.1075117435
     C    -1.6878794372   -2.9403312378   -3.7755558363
     C    -2.5867858394   -5.2342911589   -3.7793154567
     H    -1.5535628384   -5.2563355259   -1.2773447511
     H    -0.3654514802   -3.3458734946   -0.2043287550
     H    -0.8286917124   -0.9616096010   -3.5578480866
     H    -2.0527793760   -2.7775309004   -4.7831959354
     N    -3.1489243991   -6.1017225557   -4.3103845863
     O     0.2009130222    0.5811590052   -2.1963965225
     H     0.3208466469    1.5349008461   -2.0467153487
     O    -0.1422151031   -0.7736389313    0.7366871176
     H    -1.0994628595   -0.9178729131    0.8357651258
