11
-7.7347920435804622e+02 frame 65   xyz file generated by TeraChem
    Ni     0.1093424034    0.3929059737   -0.5572155950
     O     1.3806585721   -0.9759626388   -0.1906225608
     N     3.0366282111   -1.0730894091    1.5889340529
     C     2.2118596064   -0.9721405360    0.7480142770
     O    -0.2356157880   -0.3806720014   -2.3149220825
     N     0.6034491272   -2.3379336156   -3.4881164555
     C     0.2296095072   -1.3984401545   -2.8724592333
     O    -1.2130764659    1.6984810729   -1.0475544319
     N    -2.1769511962    3.4833975578    0.2948578912
     C    -1.6691001946    2.5996832287   -0.3054931207
     F     0.3640348099    1.1530904214    0.9991615848
