56
-1.3313672841272712e+03 frame 154   xyz file generated by TeraChem
    Co     0.2621257948    0.4135409631   -0.1776498499
     C     1.9652322029   -0.4620959621    0.0591158540
     N     2.9956480251   -0.9871076359    0.1738868253
     C     5.2368388458   -1.0943168486    1.2521684514
     C     5.1926281365   -1.4869455476    2.6085578255
     C     6.1339420615   -0.9927200092    3.5350439337
     C     7.1246052825   -0.1152566112    3.1134885593
     C     7.1779031842    0.2741050046    1.7636592414
     C     6.2316228964   -0.2178324204    0.8338377089
     H     4.4426177784   -2.1989145156    2.9447909089
     H     6.0873967250   -1.3179032009    4.5694054062
     H     7.9587077124    0.9472090710    1.4227518066
     H     6.3118363914    0.0776439123   -0.2088580843
     H     7.8641893420    0.2589864567    3.8139641344
     C     4.2651137284   -1.6925078899    0.2525641927
     H     4.0190118219   -2.7291879387    0.5047985931
     H     4.6801360387   -1.6809167751   -0.7599450560
     C    -0.2559976141   -0.9592308490   -1.3990130440
     N    -0.5258054659   -1.7821021974   -2.1739821175
     C    -2.0618178171   -3.5710733743   -2.9512442981
     C    -2.1857369133   -4.4245629876   -1.8179198563
     C    -3.3226521800   -5.2155846959   -1.6408179750
     C    -4.3399506615   -5.1772127623   -2.5907091813
     C    -4.2198249857   -4.3328636392   -3.7218828803
     C    -3.0826076027   -3.5289679429   -3.8941909771
     H    -1.3773504484   -4.4775218710   -1.0928934501
     H    -3.4010865148   -5.8680954238   -0.7775120926
     H    -5.0105803629   -4.3147298906   -4.4656062933
     H    -2.9993898090   -2.8999272386   -4.7756945267
     H    -5.2231507195   -5.7979437164   -2.4770314969
     C    -0.7824648196   -2.7902534814   -3.1827645979
     H    -0.8052803870   -2.2694864640   -4.1444112752
     H     0.0907121074   -3.4538245429   -3.1820484299
     C    -1.4192146275    1.3085142132   -0.4703232120
     N    -2.4348280375    1.8394516811   -0.6623190337
     C    -3.7890725557    3.9278418062   -0.6506290675
     C    -4.2017793290    4.3884250654    0.6170278004
     C    -4.3261123777    5.7701376763    0.8788527375
     C    -4.0464401704    6.6934285323   -0.1206592169
     C    -3.6409685326    6.2409617120   -1.3866422234
     C    -3.5142717394    4.8560910651   -1.6499517792
     H    -4.4552490696    3.6775418757    1.3998886020
     H    -4.6576445495    6.0998380143    1.8583193277
     H    -3.4352571010    6.9541316774   -2.1790873451
     H    -3.2247909597    4.5321742526   -2.6461451470
     H    -4.1528774143    7.7571173123    0.0660690155
     C    -3.7297593908    2.4395787846   -0.9401460752
     H    -3.9382531239    2.2314544028   -1.9941015383
     H    -4.4555314084    1.8846136528   -0.3369919549
     C     0.4561477884    1.6380625528    2.4853065602
     N     0.8385973571    1.8754817816    1.0558593060
     H     1.8505480271    2.0061670084    1.0028764951
     H     0.4448784093    2.7687830863    0.7532576383
     H     0.9227125521    0.7157367557    2.8361947289
     H    -0.6282118390    1.5366046177    2.5527230372
     H     0.7812674262    2.4696344804    3.1169153390
