27
-2.2995893049199212e+03 frame 65   xyz file generated by TeraChem
    Cr    -0.2566694181    0.1056931310   -0.3959221235
     C     4.4272008848   -0.1973852479    0.6025591816
     C     3.8703189935    1.0281951362    0.1944654917
     C     2.5259381198    1.1015322325   -0.1150812977
     N     1.7038844940    0.0227717519   -0.0469976452
     C     2.2317008007   -1.1639494600    0.3533731033
     C     3.5640176546   -1.3098727243    0.6766030236
     S     6.1116766844   -0.4236297181    1.0243132038
     H     4.4702776139    1.9286410148    0.1194795103
     H     2.0689077015    2.0328736779   -0.4228478221
     H     1.5524459389   -2.0048633390    0.4273046364
     H     3.9274849651   -2.2814238947    0.9941909579
     H     6.5012322356    0.8523017818    0.8265532753
     C    -0.8735571762   -3.2686051734   -3.7762831527
     C    -0.3673788328   -1.9797429841   -4.0337522547
     C    -0.1832225371   -1.1032123548   -2.9823773450
     N    -0.4691251267   -1.4254602173   -1.6956013102
     C    -0.9633309708   -2.6642309261   -1.4410197000
     C    -1.1699592958   -3.5958874996   -2.4377849049
     S    -1.1590374223   -4.4779047846   -5.0103769553
     H    -0.1229377723   -1.6550852206   -5.0392848423
     H     0.1972852557   -0.1013401962   -3.1654236710
     H    -1.1989555532   -2.8767189781   -0.4055678688
     H    -1.5709687446   -4.5691838716   -2.1749100094
     H    -0.7671394436   -3.7319257705   -6.0634739078
    Cl    -0.5777435197    2.2417238001   -0.7864488334
    Cl    -1.1353141946   -0.8612589731    1.3622731583
