31
-1.5650441794430833e+03 frame 59   xyz file generated by TeraChem
    Cr     0.0292755765   -0.3532552651   -0.0592538036
     C     4.6435767380    0.4650187588    0.3553224266
     C     4.0711700392    0.3565411929   -0.9355284828
     C     2.7205600397    0.1056299085   -1.0574241487
     N     1.9200968643   -0.0523317401    0.0458981196
     C     2.4662420625    0.0595591278    1.3007694454
     C     3.8095610430    0.3116045207    1.4878198857
     C     6.0306695715    0.7253333789    0.5096843343
     H     4.6831147835    0.4650170565   -1.8261500247
     H     2.2521210056    0.0074033738   -2.0315109420
     H     1.8031348552   -0.0549290078    2.1559422843
     H     4.2119402494    0.3882306159    2.4935850552
     N     7.1705608978    0.9382527271    0.6358428420
     C    -1.3077963286   -3.1389108113   -3.6203256609
     C    -0.3800425414   -3.5739607459   -2.6425284573
     C    -0.0133412412   -2.7077109950   -1.6349429387
     N    -0.5155217596   -1.4324482633   -1.5546624886
     C    -1.4160186779   -1.0071514020   -2.4989101271
     C    -1.8251616195   -1.8261591830   -3.5316154327
     C    -1.7128641087   -4.0084221534   -4.6671445312
     H     0.0407952599   -4.5742975858   -2.6788887991
     H     0.7020349092   -3.0117551469   -0.8743063735
     H    -1.8102471754   -0.0003761975   -2.4071149082
     H    -2.5393761260   -1.4569796598   -4.2616699895
     N    -2.0445449887   -4.7237529977   -5.5266247180
     S    -1.0656775053    1.8629559024   -0.3464021406
     H    -0.8316673288    2.4959114834    0.8294079085
     H    -0.1720718441    2.5897412109   -1.0594784413
     S    -1.0409109239   -1.2968940333    2.0564002987
     H    -0.7585292238   -2.6209817531    2.0494857967
     H    -2.3513187794   -1.4416551738    1.7442577182
