25
-9.1901746278458984e+02 frame 142   xyz file generated by TeraChem
    Fe    -0.4921347824   -0.3367226916    0.2016873681
     O    -0.4873638116    1.1774554646   -0.7780459697
     N    -0.4214467222    3.3329330767   -1.8870286142
     C    -0.4523579408    2.2970915196   -1.3464963502
     O    -0.4938373826   -1.6870169023    1.4181596912
     N    -0.8061859297   -3.0775484835    3.3788618524
     C    -0.6667480689   -2.3965731725    2.4377404596
     O    -1.5935310645    6.1885122964   -4.2658852925
     C    -1.4015856500    7.3475506623   -4.9351211850
     C    -0.1272561404    7.8853259909   -4.6469449735
     C     0.4658437879    7.0013249603   -3.7637752165
     C    -0.4709107277    5.9566700276   -3.5470509208
     H    -2.2164469740    7.6804211499   -5.5662560736
     H     0.2730793214    8.8052845480   -5.0526205369
     H    -0.4523224402    5.0437959260   -2.9415053776
     H     1.4461295805    7.0630699585   -3.3098525770
     O    -0.1958291184   -4.2830696340    6.1144632408
     C    -1.3486281866   -4.4608262531    5.4481603644
     C    -1.3885431817   -5.7567831266    4.8664341773
     C    -0.1874294091   -6.3619200638    5.1943769761
     C     0.5245952445   -5.4232552077    5.9586490596
     H    -2.0836186833   -3.6749198204    5.5285605651
     H    -2.2093477041   -6.1564373791    4.2866418465
     H     1.4952141564   -5.4419372867    6.4368036193
     H     0.1575262738   -7.3534520227    4.9337913947
