31
-1.7977393057558043e+03 frame 94   xyz file generated by TeraChem
    Ni    -0.2047387655    0.1357827410    0.1803437457
     O     1.7048308540    0.4282690345    0.3493021800
     N     2.9487125022    0.8934770835    2.3876108019
     C     2.3506380212    0.6571655701    1.3850893185
     O    -0.9358337490   -1.4505267762   -1.2153078528
     N    -0.7465096916   -2.3377889469   -3.4640110054
     C    -0.8343404154   -1.8876857832   -2.3284430655
     C    -1.5998905548    4.3963441425   -1.5250486159
     C    -0.2610825366    3.9651671363   -1.6180021474
     C     0.0892547409    2.7315811457   -1.0964079787
     N    -0.8107890469    1.9115633363   -0.4993301082
     C    -2.0999093671    2.3172290933   -0.4104264436
     C    -2.5312808581    3.5361045551   -0.9008517030
     S    -2.1864784158    5.9240312983   -2.1386542037
     H     0.5043748258    4.5739540976   -2.0876880027
     H     1.1148282998    2.3820368594   -1.1504443579
     H    -2.7963244222    1.6415433167    0.0754798276
     H    -3.5755402318    3.8134022221   -0.7985754116
     H    -1.0079966612    6.3850568204   -2.6112487077
     C    -1.5152825027   -1.5983710326    4.4277601562
     C    -0.7195573122   -0.4359473804    4.3351680265
     C    -0.4043026240    0.0675762113    3.0853342657
     N    -0.8311621259   -0.5112325183    1.9368291965
     C    -1.6005445349   -1.6283585129    2.0192583570
     C    -1.9626430028   -2.1934946296    3.2260961753
     S    -1.9748751203   -2.3513071388    5.9322421105
     H    -0.3419506981    0.0714826329    5.2166241103
     H     0.2203003159    0.9494554906    2.9959742303
     H    -1.9213893425   -2.0737956745    1.0836673187
     H    -2.5767943684   -3.0882473520    3.2330351953
     H    -1.3350770494   -1.4946212509    6.7581462433
