53
-2.4258137937925035e+03 frame 80   xyz file generated by TeraChem
    Fe    -0.1109604954    0.2174262920    0.0961122141
     C     2.0141756972    0.3561058692   -0.3467657059
     N     3.1719931412    0.4087357888   -0.4505740345
     C     5.2862052485    0.8821703039   -1.7053073863
     C     4.6085656707    1.2295112425   -2.8742784721
     C     5.3375679599    1.6285802635   -3.9921867538
     C     6.7600135539    1.6837143528   -3.9480326372
     C     7.4410660316    1.3351402731   -2.7758017724
     C     6.7165182449    0.9378865819   -1.6630221907
     H     3.5253331214    1.1910465411   -2.9213565034
     H     4.8246022297    1.9004132245   -4.9094428777
     H     8.5245682695    1.3752792375   -2.7370468124
     H     7.2373394630    0.6657122104   -0.7482784725
     H     7.3100329032    1.9976260826   -4.8300171420
     C     4.6082457438    0.4262872333   -0.4291094984
     H     4.9021603828    1.0750377830    0.4068670521
     H     4.9325696496   -0.5914372643   -0.1724487476
     C    -2.4580656917   -2.6543187267   -3.1217954956
     C    -1.0550881586   -2.7205870344   -2.9884815344
     C    -0.4188189233   -1.8768150244   -2.0955998477
     N    -1.0766429349   -0.9773204131   -1.3220484649
     C    -2.4271851374   -0.9109830678   -1.4556111444
     C    -3.1433927107   -1.7120381327   -2.3234782107
     S    -3.4009448379   -3.6517435413   -4.2029116927
     H    -0.4628248591   -3.4180655197   -3.5715600449
     H     0.6604583381   -1.9151298073   -1.9848955912
     H    -2.9421132489   -0.1778995042   -0.8422500671
     H    -4.2222719749   -1.6078355554   -2.3801849959
     H    -2.3754956975   -4.3622969703   -4.7190686818
     C    -2.3537669030    4.5655407918   -0.1556813449
     C    -1.3682616638    4.2125465026   -1.1022788779
     C    -0.7491418684    2.9799582987   -1.0081544097
     N    -1.0376475297    2.0717770526   -0.0419307553
     C    -1.9881268928    2.4120601440    0.8689874891
     C    -2.6560986493    3.6205197394    0.8505047553
     S    -3.2214550309    6.0805907758   -0.1434944782
     H    -1.0866879906    4.8870845961   -1.9039630296
     H     0.0073772850    2.6942540069   -1.7326450738
     H    -2.2105239254    1.6784169127    1.6384969216
     H    -3.4045638400    3.8291444638    1.6084167893
     H    -2.6388844764    6.6195351398   -1.2355415741
     C    -0.3065079162   -1.7550224110    4.5534783039
     C     0.1379559267   -0.4266792417    4.3742737157
     C     0.1844067270    0.1068742628    3.1009055632
     N    -0.1808287137   -0.5844164222    1.9890891858
     C    -0.6034053240   -1.8660633530    2.1606829323
     C    -0.6815251082   -2.4748682172    3.3964719430
     S    -0.4235476322   -2.5632905241    6.0953495120
     H     0.4425403469    0.1865570598    5.2158905849
     H     0.5197148686    1.1289722937    2.9494425066
     H    -0.8914016981   -2.4078532210    1.2648335930
     H    -1.0320751476   -3.4997240377    3.4648518295
     H     0.0070292923   -1.5374474672    6.8597762872
