16
-9.5745309355139432e+02 frame 40   xyz file generated by TeraChem
    Fe    -0.0188145639   -0.0349176358   -0.0265013546
     N     1.8689993980    0.2654739061    0.2675798844
     C     3.0339259275    0.4581725639    0.4398794149
     S     4.6022853303    0.7260566687    0.6749789381
     C    -0.2914795426   -2.2579821287   -2.2096717022
     O    -0.5710160291   -1.4213744539   -1.3499669773
     H    -1.1008581357   -2.7857128186   -2.7295945271
     H     0.7513427996   -2.4871421260   -2.4667415754
     C    -1.4746772359    2.6369810296   -0.9391973558
     O    -0.8061400081    1.6079302103   -0.8597358900
     H    -2.0230630260    3.0268764270   -0.0710963307
     H    -1.5256729706    3.1785879182   -1.8923913854
     C    -1.3307026296   -0.7470532162    2.8160786541
     O    -0.8948785664   -0.3499442639    1.7369867989
     H    -2.0002260008   -0.1094171805    3.4082168374
     H    -1.0575317127   -1.7390928836    3.1999331192
