33
-1.6073702370973142e+03 frame 132   xyz file generated by TeraChem
    Cr     0.2147481838   -0.0471096259    0.2577352798
     C     2.8934908912    0.2607291507   -1.4417683374
     O     2.1157337742    0.2413234582   -0.4869693478
     H     3.9572150766    0.4708363679   -1.2695678836
     H     2.5506143254    0.0715298768   -2.4688010451
     C     1.0211577929   -3.0892188139    0.0238591360
     O     0.3808508399   -2.0520481641   -0.1589263726
     H     0.7188251117   -4.0088482315   -0.4934037094
     H     1.8910108076   -3.1204209797    0.6948176960
     C     0.0141561053    4.8266877905    0.7336934941
     C    -0.9871299481    4.1298112154    0.0194412508
     C    -0.9202132331    2.7478383952   -0.0555474014
     N     0.0731104313    2.0215449002    0.5199577446
     C     1.0380245856    2.6926772522    1.2042646365
     C     1.0441076046    4.0698317205    1.3407736585
     S     0.0701953009    6.5608479184    0.9189424856
     H    -1.8054921974    4.6462052947   -0.4722440785
     H    -1.6835825218    2.1985525765   -0.5978353042
     H     1.8306223348    2.0992737123    1.6492583766
     H     1.8396197862    4.5463028703    1.9059834681
     H    -1.0347501979    6.8568614071    0.1964276352
     C    -4.0634454265   -1.2118633384    2.3494306062
     C    -3.7342906160   -1.6609900804    1.0508085755
     C    -2.5282183187   -1.2727208945    0.4924423501
     N    -1.6415615709   -0.4612906528    1.1291626789
     C    -1.9613209752   -0.0238694755    2.3743898316
     C    -3.1392791237   -0.3707497571    3.0148764069
     S    -5.5320807687   -1.6249405756    3.1958725204
     H    -4.3969795553   -2.3045285911    0.4808509605
     H    -2.2496406530   -1.6221778811   -0.4962920896
     H    -1.2442395079    0.6220597988    2.8703760039
     H    -3.3343024779    0.0044809573    4.0150865489
     H    -6.0865933949   -2.3964979819    2.2324454736
