38
-9.4477953194306986e+02 frame 46   xyz file generated by TeraChem
    Cr     0.0730540864   -0.0124567912   -0.1293322315
     C     2.9235123309    0.4923262809   -1.6475922020
     O     1.8825289501    0.2964046366   -1.0074311494
     H     3.8420100109    0.7876636235   -1.1233473153
     H     2.9392342316    0.3721787897   -2.7390350764
     C    -2.3339525445   -3.5198226147   -2.2002584566
     C    -0.9689993720   -3.6172070786   -1.9059661353
     C    -0.3337153583   -2.5371623360   -1.3109839594
     N    -1.0095534376   -1.3933594971   -1.0081846105
     C    -2.3366584776   -1.2937583569   -1.2891306378
     C    -3.0221018206   -2.3406287002   -1.8872945054
     H    -2.8540985830   -4.3515686365   -2.6678735234
     H    -0.4003934370   -4.5131965030   -2.1344252575
     H     0.7282523913   -2.5782019858   -1.0723085044
     H    -2.8292638198   -0.3609731378   -1.0349313423
     H    -4.0800937729   -2.2305906277   -2.1042677225
     C    -1.8447080166    4.1767278078   -1.2367870600
     C    -1.6001412033    3.2167352781   -2.2269443107
     C    -1.0961921030    1.9791566085   -1.8576280102
     N    -0.8397714343    1.6800092700   -0.5525370835
     C    -1.0782062294    2.6083606139    0.4162429370
     C    -1.5765179345    3.8641906183    0.1001568563
     H    -2.2385764037    5.1535162175   -1.5045058569
     H    -1.7949994584    3.4218063855   -3.2750402344
     H    -0.8903749678    1.2103533678   -2.5971041190
     H    -0.8662135371    2.3247232402    1.4409537272
     H    -1.7530179658    4.5809887244    0.8960994094
     C    -0.6085142231   -0.8874985570    4.4728132522
     C    -1.7520705645   -0.8270737350    3.6649106527
     C    -1.6141322465   -0.5535800539    2.3132011912
     N    -0.3908920736   -0.3366578374    1.7584775571
     C     0.7257054961   -0.3955572125    2.5430828610
     C     0.6501482627   -0.6690709822    3.9003589757
     H    -0.6971177983   -1.1035383903    5.5341992882
     H    -2.7422923724   -0.9942963506    4.0771048811
     H    -2.4683420170   -0.5016300524    1.6486826782
     H     1.6898046064   -0.2170411599    2.0661393085
     H     1.5590512734   -0.7072860095    4.4924497441
