22
-1.8999629683538510e+03 frame 50   xyz file generated by TeraChem
    Cr     0.7226815132    0.5105815584   -0.0047981845
     S     2.9131478725    0.8060468434    0.2745402019
     C     3.3101526792   -0.7563699934    0.8157599481
     N     3.5398501472   -1.8236795767    1.2346443031
     S     0.1177846701   -0.9905064240   -1.5460829927
     C    -0.9084868709   -2.0728671418   -0.7328442400
     N    -1.6150433494   -2.8196131167   -0.1779822201
     S     0.3692308315    2.6581217024   -0.4754943745
     C    -1.3130812735    2.5883290972   -0.7136093405
     N    -2.4749446906    2.5139309911   -0.8217108440
     C    -1.8470227859   -1.2490161256    3.7285586464
     C    -2.4372472538   -0.3547736594    2.8253626357
     C    -1.6729918735    0.1476439420    1.7826428716
     N    -0.3765557813   -0.1916976983    1.6098825578
     C     0.1944800896   -1.0539970128    2.4799469654
     C    -0.5032265476   -1.6026065810    3.5459030094
     C    -2.6020856203   -1.7884851556    4.8219328540
     H    -3.4748129626   -0.0588641263    2.9262110305
     H    -2.1072732363    0.8342801522    1.0634530251
     H     1.2329424935   -1.3204084484    2.3095590743
     H    -0.0089568912   -2.2949248241    4.2172503510
     N    -3.2110060438   -2.2191006432    5.7132746501
