21
-8.7613973063486071e+02 frame 55   xyz file generated by TeraChem
    Fe     0.3367646498    0.0561819014   -0.4579487035
     O     2.2969585630    0.3360631325   -0.2860738450
     N     3.5462012579    0.5480127189    1.7959137736
     C     2.9430200305    0.4515262269    0.7863714614
     O    -0.1762343816   -1.3285276987   -1.7506957176
     N    -2.3227334145   -2.4829944561   -1.8416257166
     C    -1.2899982176   -1.9159308029   -1.8064123859
     O    -0.5185851711    1.8091069332   -0.6761171713
     N    -1.8416314834    3.1645873683    0.8610840452
     C    -1.1989753211    2.4994062145    0.1319562674
     C    -1.5376106589   -1.3344972128    3.9035083068
     C    -2.2158870356   -1.6075888585    2.7166455830
     C    -1.6229918596   -1.2601349831    1.5064348558
     N    -0.4099459245   -0.6752705716    1.4392145512
     C     0.2499900170   -0.4205095759    2.5868363894
     C    -0.2830208249   -0.7327299351    3.8346913041
     H    -1.9789891268   -1.5876428765    4.8640974560
     H    -3.1937583021   -2.0781749667    2.7161411094
     H    -2.1203167767   -1.4690434643    0.5626596200
     H     1.2352891444    0.0305985165    2.4958329810
     H     0.2872281855   -0.5030638138    4.7289537934
