101
-2.0304803748533163e+03 frame 41   xyz file generated by TeraChem
    Mn    -0.1373286322    0.1109605386    0.0973302988
     C     2.0165923074    0.1468519372    0.1665400010
     N     3.1817997315    0.1675458013    0.2124640642
     C     4.5628763506    0.1905122985    0.2668972561
     C     5.2221589836    1.3774497429    0.6255987797
     C     6.6072557434    1.3812259766    0.6738150290
     C     7.3706019718    0.2327469065    0.3744198478
     C     8.9026664628    0.2941043395    0.4449814608
     C     9.4096383311    1.3824164617   -0.5341677727
     C     9.3253500035    0.6614427412    1.8895867763
     C     9.5598173147   -1.0469680446    0.0673864773
     C     6.6723356561   -0.9359420069    0.0207454299
     C     5.2838416749   -0.9715397675   -0.0366755236
     H     4.6512449859    2.2700603361    0.8595041344
     H     7.1086666649    2.3018817556    0.9514507994
     H     9.1161147448    1.1569990848   -1.5653070593
     H    10.5030888831    1.4300121907   -0.4974902833
     H     9.0279725708    2.3771306992   -0.2814653593
     H     8.9853886007   -0.0928902256    2.6077487706
     H     8.9264730176    1.6320983802    2.2022718973
     H    10.4172885635    0.7176037849    1.9503401007
     H     9.2657518961   -1.8554640817    0.7462318710
     H    10.6477399832   -0.9491494896    0.1312672625
     H     9.3201315199   -1.3472446981   -0.9590131068
     H     7.2155179384   -1.8423810882   -0.2160214250
     H     4.7613945081   -1.8821268115   -0.3113237328
     C    -0.7573221760   -1.3385671972   -1.3664898652
     N    -1.0849945522   -2.1248714320   -2.1631602657
     C    -1.4636017603   -3.0593331433   -3.1088250945
     C    -2.8275244602   -3.3028506705   -3.3379615230
     C    -3.1844106982   -4.2452053368   -4.2896436866
     C    -2.2222540765   -4.9638241557   -5.0305799596
     C    -2.6752589327   -5.9970663780   -6.0710817238
     C    -3.5252762733   -7.0847541708   -5.3671128262
     C    -3.5337285192   -5.2864081540   -7.1478265143
     C    -1.4864998584   -6.6837304386   -6.7698273391
     C    -0.8670750832   -4.6897017894   -4.7718282205
     C    -0.4771656463   -3.7503083714   -3.8244810197
     H    -3.5814584350   -2.7602736257   -2.7771114328
     H    -4.2397510416   -4.4272398668   -4.4606403035
     H    -2.9462388113   -7.6016130599   -4.5940916112
     H    -3.8490896853   -7.8288145858   -6.1021327155
     H    -4.4236121315   -6.6683680647   -4.9000972456
     H    -2.9598623224   -4.5074080906   -7.6614299917
     H    -4.4306901922   -4.8253787907   -6.7217876651
     H    -3.8598276224   -6.0161643051   -7.8960672289
     H    -0.8614024031   -5.9695281515   -7.3178288790
     H    -1.8637589835   -7.4087225776   -7.4973931295
     H    -0.8537735520   -7.2325622672   -6.0629668960
     H    -0.0932454693   -5.2159147213   -5.3166295448
     H     0.5730345141   -3.5509576010   -3.6377126068
     C    -0.8441827608    2.0573413245   -0.4899564809
     N    -1.2087024733    3.1089741080   -0.8382094750
     C    -1.6306089986    4.3542643262   -1.2645527925
     C    -2.4481044506    5.1341999652   -0.4305937928
     C    -2.8572036891    6.3808476772   -0.8768932698
     C    -2.4773472427    6.8865420482   -2.1382482171
     C    -2.9619812599    8.2738045093   -2.5805666948
     C    -4.5111001312    8.2773453310   -2.6164168109
     C    -2.4648346869    9.3315706941   -1.5636121319
     C    -2.4412527730    8.6590469434   -3.9781345036
     C    -1.6587036483    6.0744424125   -2.9435687582
     C    -1.2324095953    4.8194486639   -2.5248302332
     H    -2.7498614326    4.7614479141    0.5426876546
     H    -3.4890248294    6.9775363510   -0.2281482952
     H    -4.8936688190    7.5332962636   -3.3236734578
     H    -4.8683803537    9.2617890604   -2.9361769319
     H    -4.9498370701    8.0706285693   -1.6345369710
     H    -1.3703079284    9.3628827033   -1.5269291425
     H    -2.8330487286    9.1384896929   -0.5506693971
     H    -2.8215432948   10.3234375610   -1.8603951075
     H    -1.3467431534    8.7034819619   -4.0121020996
     H    -2.8150955599    9.6528346427   -4.2424719384
     H    -2.7873590594    7.9655329834   -4.7529004137
     H    -1.3412362941    6.4215029412   -3.9189788297
     H    -0.6009438927    4.2057054963   -3.1589758590
     C    -0.8911260106   -0.4717724730    2.0271127986
     N    -1.2848912204   -0.8202519372    3.0680634996
     C    -1.7418595359   -1.2532934649    4.2986275586
     C    -1.3146207040   -2.4977777899    4.7902816546
     C    -1.7819459118   -2.9224864020    6.0234624485
     C    -2.6714682151   -2.1451287711    6.7952739774
     C    -3.1602637392   -2.6693231175    8.1525574993
     C    -3.8969338053   -4.0153383103    7.9359790652
     C    -1.9372765076   -2.8913368127    9.0770227362
     C    -4.1269826629   -1.6912251491    8.8464256833
     C    -3.0734548941   -0.9043124947    6.2692542963
     C    -2.6218940880   -0.4499970210    5.0350565802
     H    -0.6314859526   -3.1090019793    4.2095951851
     H    -1.4471535564   -3.8842747075    6.3961470400
     H    -4.7674502892   -3.8900470414    7.2829585014
     H    -4.2491077248   -4.4009749615    8.8985720255
     H    -3.2463889209   -4.7773154146    7.4942167896
     H    -1.3888476177   -1.9574830656    9.2424588783
     H    -1.2381359770   -3.6289187050    8.6690482601
     H    -2.2741308066   -3.2617681285   10.0510582673
     H    -3.6551769158   -0.7249219300    9.0579751313
     H    -4.4433570403   -2.1147121457    9.8044012418
     H    -5.0316532078   -1.5172290385    8.2530275274
     H    -3.7544329154   -0.2741076286    6.8275881227
     H    -2.9436431218    0.5095645682    4.6437490787
