65
-1.9877239908158438e+03 frame 57   xyz file generated by TeraChem
    Cr    -0.1018809275    0.0178991687   -0.4251729260
     N    -0.7782436676   -1.4640565755   -1.5362707705
     N    -0.9122544678   -1.0768468430    1.0034864695
     C    -0.6363813825   -1.5405874240   -2.8802931347
     H    -0.0799628045   -0.7434795523   -3.3657377817
     C    -1.1647099085   -2.5971948998   -3.6072733466
     H    -1.0122628089   -2.6252568842   -4.6813698822
     C    -1.8704210949   -3.6149559937   -2.9478105458
     C    -2.0316803603   -3.5067358193   -1.5497573922
     H    -2.5765588211   -4.2712823919   -1.0132601676
     C    -2.1943281148   -3.0431316322    1.4932131772
     H    -2.6938022086   -3.9393534305    1.1525399625
     C    -2.2372505423   -2.6943161802    2.8605295122
     C    -1.5700027360   -1.5257462251    3.2598188211
     H    -1.5630365200   -1.2110387206    4.2983608398
     C    -0.9141678470   -0.7479703266    2.3172201242
     H    -0.3870563322    0.1587834814    2.6014656580
     C    -1.4743030414   -2.4403541116   -0.8656445322
     C    -1.5472206959   -2.2215747594    0.5863137223
     C    -3.0151891424   -3.5344619959    3.8303466151
     C    -2.4032424470   -4.8147510250   -3.6755274977
     C    -1.8760898607   -6.1281586966   -3.0318913548
     H    -3.5012958238   -4.8380384364   -3.6046728280
     H    -2.1543707062   -4.7694982919   -4.7404997468
     C    -4.4798602412   -3.7276906969    3.3439144775
     H    -2.9818626002   -3.1024194513    4.8352644252
     H    -2.5689358702   -4.5382439302    3.8978903853
     O    -4.8000665009   -3.5363912920    2.1955384250
     O    -5.3533368932   -4.1482113672    4.2537497194
     H    -4.9732151064   -4.2770185100    5.1409797030
     O    -1.3650876751   -6.1414274510   -1.9375530997
     O    -2.0478607505   -7.2411166964   -3.7387787104
     H    -2.4783224032   -7.1007002833   -4.6009875237
     N     1.8517064878    0.1048003609   -0.4156376391
     N     0.0840483025    1.9776235878   -0.7286882274
     C     2.6716364074   -0.9591874341   -0.2417836433
     H     2.1972415199   -1.9229652539   -0.0899269286
     C     4.0507816778   -0.8242958559   -0.2674056252
     H     4.6678713042   -1.7081439817   -0.1423114973
     C     4.6262456554    0.4401460829   -0.4663079423
     C     3.7583233574    1.5427867237   -0.6126618180
     H     4.1714552499    2.5300841728   -0.7648066162
     C     1.6701862464    3.7616117756   -0.9728897358
     H     2.6960133767    4.1005004451   -1.0101992470
     C     0.6217224650    4.7000598145   -1.0937115736
     C    -0.6962594338    4.2202806918   -1.0514670895
     H    -1.5420468502    4.8939009602   -1.1440772752
     C    -0.9298179508    2.8653288123   -0.8747755366
     H    -1.9394989888    2.4657135266   -0.8360506224
     C     2.3857324688    1.3589050804   -0.5975539455
     C     1.3841655932    2.4215401448   -0.7784414055
     C     0.9331383349    6.1634930786   -1.2029592481
     C     6.1120115407    0.6273749427   -0.5696274156
     C     6.4897979933    1.3647625913   -1.8854812480
     H     6.4690152187    1.2543810310    0.2614856892
     H     6.6313487195   -0.3326955077   -0.4899660343
     C     1.8330369329    6.6183628200   -0.0178524514
     H     0.0149316663    6.7566098315   -1.2573860460
     H     1.4977953979    6.3597278047   -2.1268410782
     O     2.4512685732    5.8249560801    0.6503907665
     O     1.9088072080    7.9275668579    0.1985764229
     H     1.3734091714    8.4626641063   -0.4140832483
     O     5.6731533645    1.9795964092   -2.5282682029
     O     7.7682430703    1.3106329055   -2.2466569496
     H     8.3306535954    0.7949955165   -1.6415497960
