29
-8.3531783251945444e+02 frame 91   xyz file generated by TeraChem
    Co     0.0879512804   -0.1348568761   -0.1535112052
     O    -0.2976866176   -1.3579981311   -1.5311828859
     C    -0.9685016929   -2.4592495528   -1.4503912451
     C    -1.0443712526   -3.2580509361   -2.7201662263
     C    -1.5958965970   -2.8944923651   -0.2727117407
     C    -1.5794365555   -2.1856144382    0.9347719692
     O    -0.9607158372   -1.0574219632    1.0816588939
     C    -2.3014416496   -2.6817527592    2.1539868295
     H    -0.0338307457   -3.5591827572   -3.0200381622
     H    -1.4452180164   -2.6293612006   -3.5227569511
     H    -1.6671186460   -4.1464159914   -2.6056675484
     H    -2.7409148156   -3.6675303392    1.9939300884
     H    -3.0941318521   -1.9712514697    2.4170495543
     H    -1.6079660865   -2.7202417128    3.0008447756
     H    -2.1432329546   -3.8275627989   -0.3061599672
     O     1.9161109444    0.1255520361    0.1611674901
     C     2.5862449290    1.2260354078    0.0435492715
     C     4.0630188496    1.1039022230    0.2861626424
     C     1.9930377234    2.4560053272   -0.2789487147
     C     0.6209723400    2.6415050000   -0.5002431642
     O    -0.2445397931    1.6798859674   -0.4429866423
     C     0.0503593789    3.9947487517   -0.8126092705
     H     4.4956141340    0.4187508808   -0.4522198918
     H     4.2338513808    0.6628970553    1.2743426119
     H     4.5683376798    2.0687085534    0.2232289092
     H     0.8270757590    4.7566992567   -0.8930235961
     H    -0.6572488885    4.2796445774   -0.0251937303
     H    -0.5137732917    3.9448409261   -1.7504058248
     H     2.6355423154    3.3246138968   -0.3422090821
