21
-1.8077860641878142e+03 frame 90   xyz file generated by TeraChem
    Cr     0.1567314322   -0.4559872995   -0.4876960840
     S     2.4594934832   -0.1219554892   -0.1498532102
     C     2.5008390643    1.1595660836    0.9556672890
     N     2.5550604305    2.0164608527    1.7488882277
     S    -1.8706875836   -1.6067928478   -1.6700761248
     C    -0.5203986675   -2.4433879588   -1.2240840888
     N     0.5535085486   -2.6852850779   -0.7649529812
     S    -0.2431420089    1.7982579743   -0.9473374965
     C    -1.9369005076    1.8375808559   -0.9241503797
     N    -3.1041634204    1.8698688643   -0.8465702725
     C    -1.2900774999   -1.0386819994    4.0453472448
     C    -2.0679843434   -0.3081911602    3.1482102228
     C    -1.6237532693   -0.1506313205    1.8415004915
     N    -0.4573562002   -0.6867928984    1.4223201505
     C     0.2983585951   -1.4019829511    2.2852299661
     C    -0.0903671069   -1.5959849270    3.6035302457
     H    -1.6136538878   -1.1721081382    5.0732367463
     H    -3.0088885351    0.1415427575    3.4452030529
     H    -2.2019106735    0.4081386033    1.1135723871
     H     1.2187900445   -1.8118609587    1.8895327649
     H     0.5464697459   -2.1723049054    4.2653765137
