9
-4.2664323418561708e+02 frame 63   xyz file generated by TeraChem
    Fe     0.2373730113   -0.0836656155    0.1200413841
     O     2.0222402179   -0.3395573296    0.4258331751
     H     2.3639113216   -0.6903359800   -0.4169038968
     O     0.1666191137   -0.9736082101   -1.4761918858
     H    -0.5331734985   -0.4595731752   -1.9160943686
     O    -0.9505818093    1.1938282035   -0.5161528848
     H    -1.3817623952    1.6095204237    0.2515620890
     O    -0.5233306118   -0.3417082086    1.7626339485
     H    -1.4014067253    0.0850367039    1.7652396576
