35
-1.3284559459060556e+03 frame 67   xyz file generated by TeraChem
    Fe    -0.2731616199    0.1979727171   -0.0483163380
     C     4.4883482775   -0.2765312732    1.0589587132
     C     3.9488137510    0.9972756257    0.8763873320
     C     2.6184643605    1.1099092205    0.4902849978
     N     1.8283603995    0.0375886693    0.2783786810
     C     2.3556423483   -1.1916672355    0.4584387785
     C     3.6756603558   -1.3905337314    0.8463463700
     H     5.5224414235   -0.3985568004    1.3666482963
     H     4.5425665751    1.8907046044    1.0371667374
     H     2.1515918537    2.0795600808    0.3497034123
     H     1.6895060158   -2.0333438885    0.2925158835
     H     4.0518040736   -2.3986168055    0.9836315297
     C    -1.3853929626   -3.3050496943   -3.2891693148
     C    -0.2214927318   -2.5582167258   -3.4840017844
     C     0.0973902197   -1.5674050318   -2.5641673523
     N    -0.6763975057   -1.2968450232   -1.4921276671
     C    -1.8002205871   -2.0229449175   -1.3054548347
     C    -2.1855956236   -3.0335562533   -2.1797877126
     H    -1.6609303027   -4.0876357867   -3.9895998700
     H     0.4308449763   -2.7410676975   -4.3311731888
     H     0.9998876165   -0.9721791601   -2.6711810015
     H    -2.3826646567   -1.7820470357   -0.4210027101
     H    -3.0945293195   -3.5931580107   -1.9874151029
     C    -1.3167072344    4.6154857416   -1.8909844978
     C    -0.3710794780    3.8247536415   -2.5473173807
     C    -0.0634089045    2.5772255860   -2.0200821626
     N    -0.6428303047    2.0982925835   -0.8990928593
     C    -1.5586731605    2.8659100720   -0.2672922222
     C    -1.9178277532    4.1267541658   -0.7314960138
     H    -1.5791203536    5.5955630188   -2.2776773310
     H     0.1205105729    4.1663331264   -3.4519579363
     H     0.6695270176    1.9332115599   -2.4977870673
     H    -1.9959569929    2.4423866205    0.6319455339
     H    -2.6565192430    4.7072031617   -0.1893938621
    Cl    -1.3016629609   -0.1123157555    1.9177473005
