41
-1.2005889339091141e+03 frame 64   xyz file generated by TeraChem
    Fe    -0.1900462993   -0.0839480780    0.0996386891
     N     1.9217747150   -0.3205157821    0.2990759614
     H     2.2912346787    0.0337980733    1.1899052450
     H     2.2157182358   -1.3041467029    0.2576572990
     H     2.4635834388    0.1574143329   -0.4313775039
     C    -1.7130376021   -3.7253305732   -2.6380803149
     C    -0.6548285570   -2.8867940063   -3.0575892635
     C    -0.2622648806   -1.8487765185   -2.2369330075
     N    -0.8549411823   -1.6022559275   -1.0282859019
     C    -1.8799348716   -2.4113497452   -0.6251170315
     C    -2.3311997023   -3.4674437460   -1.3935098253
     C    -2.1493354102   -4.8046058108   -3.4530908443
     H    -0.1557554570   -3.0512448362   -4.0073637422
     H     0.5430258813   -1.1851531234   -2.5396123637
     H    -2.3369560082   -2.1929662437    0.3342613054
     H    -3.1487780607   -4.0881206476   -1.0404760142
     N    -2.5093483736   -5.6905215285   -4.1217562386
     C    -0.8957149628    4.1720201423   -2.0124465771
     C    -1.5962080843    3.0304829042   -2.4629043676
     C    -1.3743165103    1.8176831810   -1.8396051354
     N    -0.5007497095    1.6806927039   -0.7969997375
     C     0.1708923020    2.7890356051   -0.3567530896
     C     0.0051222856    4.0330346130   -0.9318641495
     C    -1.0951985014    5.4356898764   -2.6316987544
     H    -2.2984769381    3.0981992291   -3.2877763430
     H    -1.8958909277    0.9241803715   -2.1654320620
     H     0.8517485711    2.6600958382    0.4801683317
     H     0.5604610728    4.8866545157   -0.5560593027
     N    -1.2601186986    6.4725690329   -3.1403024453
     C    -1.9928772303   -0.2036262667    4.5467779728
     C    -2.3414478788    0.8419639507    3.6624371081
     C    -1.8167161597    0.8434168535    2.3843424204
     N    -0.9726815202   -0.1363728030    1.9409312686
     C    -0.6403969724   -1.1513963208    2.7968514214
     C    -1.1212782199   -1.2181811215    4.0888852115
     C    -2.5100310219   -0.2359253025    5.8702371731
     H    -3.0103623203    1.6365087069    3.9776836239
     H    -2.0681874560    1.6343717597    1.6856923812
     H     0.0251997683   -1.9228348450    2.4195904941
     H    -0.8313363942   -2.0382836761    4.7381851396
     N    -2.9347400193   -0.2623956830    6.9564485891
