31
-9.6190636548058490e+02 frame 72   xyz file generated by TeraChem
    Mn     0.2254726380   -0.0772169701    0.1125405128
     O     2.1055108095    0.2214731204    0.3296767047
     N     2.8033878076    0.1734704178    2.6790609857
     C     2.5047230506    0.2022685948    1.5448755739
     O    -0.5566086255   -1.1639778407   -1.5694030934
     C    -0.2007199833   -2.4716859168   -1.9324117490
     C    -0.5457056419   -2.6855431358   -3.2181978109
     C    -1.1448161206   -1.4704962220   -3.7126683041
     C    -1.1355843547   -0.5758823345   -2.7036104637
     H     0.2618421692   -3.0629960021   -1.1569129414
     H    -0.3978629388   -3.6040893626   -3.7686574338
     H    -1.4648766744    0.4451629420   -2.5848922165
     H    -1.5340735592   -1.3003934415   -4.7067412145
     O    -0.4862654422    1.9377798699   -0.1914814662
     C    -1.7938496565    2.4422439259   -0.2000143859
     C    -1.7629085836    3.7557903638   -0.5065679565
     C    -0.3810611747    4.1197344827   -0.7010453166
     C     0.3617889356    3.0119695726   -0.5035331685
     H    -2.5683686578    1.7370715872    0.0589342888
     H    -2.6203496409    4.4101980710   -0.5796705405
     H     1.4136585216    2.7729131984   -0.5122003155
     H     0.0005370182    5.0998412810   -0.9504975450
     O    -0.8546665637   -1.0279428845    1.6883975897
     C    -2.1210980523   -1.6295431096    1.6366402066
     C    -2.4884224765   -1.9964648474    2.8809399712
     C    -1.4203949068   -1.6221780362    3.7752843003
     C    -0.4499417136   -1.0449087298    3.0388471489
     H    -2.5563914178   -1.7156005160    0.6533299358
     H    -3.4134284362   -2.4879541054    3.1486264973
     H     0.5296450281   -0.6283103883    3.2369692156
     H    -1.3883121072   -1.7782427494    4.8444508199
