14
-1.7112651346217081e+03 frame 54   xyz file generated by TeraChem
    Fe     0.7327178011    0.6294085418   -0.5574836237
     S     3.0637818127    1.0002706901   -0.2597284051
     C     3.6715025415   -0.5742328109   -0.0950544114
     N     4.1374273304   -1.6406319456    0.0320084350
     S     0.0366104093   -1.0696031411   -2.1602153838
     C    -1.1318751592   -1.8020227349   -1.1974319601
     N    -1.9297155799   -2.2867879396   -0.4833682400
     S    -0.3318027716    2.7780350759   -0.8361504835
     C    -1.6708209975    2.5114827084    0.1601199747
     N    -2.5957677895    2.3259817383    0.8570739312
     C    -1.1554244661   -0.5906954782    1.4783422370
     O    -0.0094999300   -0.2566103467    1.1844232543
     H    -1.3127693866   -1.3678395944    2.2394824849
     H    -2.0336046841   -0.0950457057    1.0545689433
