45
-1.2462538408928010e+03 frame 34   xyz file generated by TeraChem
    Mn     0.2335108287   -0.2457003811   -0.3203820272
     C    -1.8992607681   -1.6852513734    3.0903971438
     C    -2.7250028861   -2.6288653716    2.4883996492
     C    -2.6564887176   -2.8415236565    1.0864725891
     C    -3.4537135604   -3.7846673452    0.3522189399
     C    -3.3158923324   -3.9206988266   -1.0045845598
     C    -2.3696892576   -3.1245550340   -1.7360697387
     C    -2.1542397425   -3.1920638366   -3.1376158294
     C    -1.2072466821   -2.3680810447   -3.7367091906
     C    -0.4661936603   -1.4723570823   -2.9557395746
     N    -0.6466720593   -1.3871695741   -1.6219566059
     C    -1.5841920804   -2.1977004145   -1.0230957538
     C    -1.7269839998   -2.0567892723    0.3761370485
     N    -0.9149260791   -1.1223482124    0.9777602926
     C    -1.0010196081   -0.9446669093    2.3118835360
     H    -1.9378993189   -1.5109063653    4.1606926776
     H    -3.4231642033   -3.2053512600    3.0903479232
     H    -4.1730016019   -4.3927727787    0.8924739118
     H    -3.9247843645   -4.6377624678   -1.5469097894
     H    -2.7311745977   -3.8881561183   -3.7415237248
     H    -1.0306458517   -2.4061055312   -4.8066580147
     H     0.2775262263   -0.8176213494   -3.4001922267
     H    -0.3451305218   -0.2033197764    2.7586144412
     C    -0.4112274503    3.9596501725   -0.6860638233
     C     0.9009284649    4.4167804595   -0.6233632366
     C     1.9688770485    3.4936786779   -0.4732011348
     C     3.3598917682    3.8444370397   -0.3961700910
     C     4.3235883805    2.8810052113   -0.2506961464
     C     3.9731839138    1.4899836394   -0.1724303217
     C     4.8965975363    0.4223729801   -0.0215814495
     C     4.4398151729   -0.8898109480    0.0425708648
     C     3.0678399317   -1.1566934760   -0.0422916137
     N     2.1666724333   -0.1638330500   -0.1878298361
     C     2.6112103631    1.1375186712   -0.2491099139
     C     1.6168894515    2.1316332791   -0.3956668734
     N     0.3155293768    1.6868486214   -0.4553391059
     C    -0.6777176248    2.5876723947   -0.6003918566
     H    -1.2389638478    4.6516883603   -0.8016993141
     H     1.1108727727    5.4814625082   -0.6898155083
     H     3.6384406633    4.8922963851   -0.4549254973
     H     5.3714298822    3.1597975141   -0.1927748011
     H     5.9612502610    0.6326412317    0.0443194476
     H     5.1320629317   -1.7172970985    0.1587410839
     H     2.6850891858   -2.1715812026    0.0058797142
     H    -1.6925198841    2.2045857082   -0.6473919759
