13
-1.3973884177915793e+03 frame 88   xyz file generated by TeraChem
    Fe    -0.3076550148    0.0384583766   -0.2992364306
     O     1.5896672185   -0.1906834727   -0.6848164140
     H     2.2771688931    0.4518308048   -0.4186150529
     H     2.0036587085   -1.0761662487   -0.6567156705
     S    -0.7676412606   -2.2829332801   -0.7978577857
     H    -0.9860690885   -2.2095050979   -2.1331450079
     H    -2.0785870226   -2.4120120522   -0.4862586862
     S    -0.0735827846    2.4306972466   -0.1306794748
     H    -0.0222821828    2.7812574965   -1.4384343383
     H    -1.3562627463    2.8308437266    0.0354639411
     S    -0.1514899372   -0.3536291466    2.0226493615
     H    -0.3684955271    0.8456138618    2.6109817273
     H    -1.3585965097   -0.8540872352    2.3768958100
