49
-2.4025104357674645e+03 frame 162   xyz file generated by TeraChem
    Fe    -0.0409823888    0.0544647963   -0.0224285096
     C     3.8978544740   -2.3371635348    1.3760619591
     C     3.8293334919   -0.9358910801    1.4545141940
     C     2.6621899202   -0.2989440511    1.0597948875
     N     1.5881720262   -0.9683792063    0.5763229474
     C     1.6604630897   -2.3193810291    0.4934639486
     C     2.7792361619   -3.0359542873    0.8889736307
     C     5.0762954546   -3.0364858135    1.7832692760
     H     4.6692085538   -0.3569204702    1.8229867894
     H     2.5768729422    0.7805662567    1.1338184535
     H     0.7903103730   -2.8329524602    0.0979102165
     H     2.7873394574   -4.1181731166    0.8173219597
     N     6.0346601692   -3.6056228319    2.1141334417
     C     0.2805809142   -2.1493997579   -4.3116470691
     C     1.3502979443   -1.3720326638   -3.8181989614
     C     1.2179369803   -0.7400144506   -2.5934860159
     N     0.0917921001   -0.8118472370   -1.8385280737
     C    -0.9418656936   -1.5490389977   -2.3170945435
     C    -0.8883606873   -2.2295533251   -3.5216591483
     S     0.2989384170   -3.0167258684   -5.8283053353
     H     2.2772326143   -1.2596463527   -4.3711941123
     H     2.0390285763   -0.1521532718   -2.1959700329
     H    -1.8418538641   -1.5888214069   -1.7119597731
     H    -1.7480776939   -2.8087352009   -3.8444156466
     H     1.5423532521   -2.6610027174   -6.2202971542
     C    -3.7723741794    2.7515858043   -1.5210629415
     C    -2.5394896948    2.7580045360   -2.2067176203
     C    -1.5080467860    1.9544501155   -1.7488309921
     N    -1.6094767210    1.1664017499   -0.6494192650
     C    -2.7948321212    1.1636398634    0.0129030566
     C    -3.8840712493    1.9174802111   -0.3855095626
     S    -5.1687825840    3.6970446525   -1.9784157555
     H    -2.3789424248    3.3712889225   -3.0874295134
     H    -0.5609781984    1.9304114287   -2.2769034094
     H    -2.8645705069    0.5302591050    0.8904237501
     H    -4.8070778736    1.8613134409    0.1832940655
     H    -4.6163052174    4.3265330104   -3.0388844329
     C    -0.5062938867    1.6445420716    4.5194609473
     C    -0.5330184274    0.2656527862    4.2219482765
     C    -0.4004939421   -0.1439647147    2.9055844972
     N    -0.2666062504    0.7206631787    1.8686360078
     C    -0.2514662961    2.0484001502    2.1519501739
     C    -0.3577024331    2.5446883390    3.4392830503
     S    -0.6409675553    2.3150904755    6.1272652478
     H    -0.6470192154   -0.4841605990    4.9981020005
     H    -0.3935697964   -1.2010645799    2.6629480305
     H    -0.1494398952    2.7314951365    1.3146762976
     H    -0.3288713974    3.6178918766    3.6010038098
     H    -0.7598609466    1.1461428347    6.7947627424
