16
-8.2580438755493151e+02 frame 34   xyz file generated by TeraChem
    Co     0.3043602990   -0.6282565902    0.3916548862
     C     4.9233260488    0.3274896617   -0.0014837929
     C     4.0556838860    0.8118098242   -0.9917033932
     C     2.6992788641    0.5451733072   -0.9004918136
     N     2.1710566615   -0.1692880358    0.1107629230
     C     2.9998309022   -0.6380731211    1.0661584737
     C     4.3664784734   -0.4165537503    1.0506747802
     S     6.6680790730    0.6013566124   -0.0067942715
     H     4.4221327215    1.3929708147   -1.8312024090
     H     2.0022025064    0.9028179096   -1.6478957475
     H     2.5394903406   -1.2101454406    1.8677028130
     H     4.9823219193   -0.8192303885    1.8477149840
     H     6.7117602738    1.3212403326   -1.1461054257
     I    -0.0451518818   -1.5895418951   -1.9271595110
     I    -0.5727251350    1.7252410119    0.0570813584
     I    -1.4739889871   -1.7378795703    1.7243090836
