9
-4.5777995641473422e+02 frame 37   xyz file generated by TeraChem
    Cr    -0.0000818879    0.0001975435   -0.0003950879
     C     1.8786619763    0.3814061993   -0.9390322621
     N     2.9110464134    0.5914224301   -1.4559198690
     C     0.2835848656   -2.0916992309   -0.3176992327
     N     0.4411739204   -3.2414056144   -0.4922359156
     C    -0.2841264167    2.0924705145    0.3173833393
     N    -0.4419254530    3.2421760197    0.4917076498
     C    -1.8777636574   -0.3828606946    0.9399762627
     N    -2.9106845586   -0.5917554965    1.4561815997
