13
-1.7662547156058126e+03 frame 118   xyz file generated by TeraChem
    Ni    -0.0884813678   -0.1137738185    0.0673659547
     S     1.6435558424   -0.0136078109   -1.5703491703
     H     2.7315746195    0.0492311162   -0.7657476697
     H     1.7304258394    1.2730937253   -1.9756580542
     S    -0.2519879610   -2.4968850887   -0.2840221319
     H     0.5989278273   -2.7967249630   -1.2922185080
     H     0.5505242563   -2.9691039236    0.6988072641
     S    -0.3475969528    2.2263418056    0.4590682446
     H    -0.8237096690    2.6429057582   -0.7384223314
     H     0.8826192543    2.7629310495    0.2923073571
     S    -1.7516682735   -0.5884724738    1.7501288831
     H    -2.0029885822    0.5924894199    2.3601776046
     H    -2.8766495442   -0.5749141582    0.9966631286
