29
-5.5230442096039951e+02 frame 50   xyz file generated by TeraChem
    Ni     0.2062823144    0.2021588457   -0.0195457495
     C     2.5609015908   -1.7292621647    0.6683736511
     N     2.1779993824   -0.2884686252    0.4834711911
     H     2.8122567171    0.1140478451   -0.2142486095
     H     2.4200219400    0.2110238413    1.3449951006
     H     2.4107676380   -2.2661082810   -0.2698402541
     H     1.9404387081   -2.1746413278    1.4482828129
     H     3.6105940894   -1.8192976197    0.9581615249
     C    -1.5270064981   -1.2722085676   -2.1030553471
     N    -0.1254917030   -1.1174401836   -1.5953614692
     H     0.4714500431   -0.8487340164   -2.3841362212
     H     0.2213659808   -2.0400902957   -1.3207971543
     H    -1.8783762591   -0.3153731222   -2.4929247799
     H    -2.1775111425   -1.5989135250   -1.2890010774
     H    -1.5701214967   -2.0129688489   -2.9059292803
     C    -1.0190491678    2.9726940810    0.3700689249
     N    -1.0762473458    1.7675800989   -0.5287707240
     H    -0.8662749625    2.0780690109   -1.4823643581
     H    -2.0464530157    1.4467041018   -0.5789874540
     H     0.0018500249    3.3598820335    0.3883366599
     H    -1.3183639219    2.6848239697    1.3794553897
     H    -1.6898389385    3.7579850296    0.0125135027
     C    -0.4439763563   -0.1596581715    2.9412267255
     N    -0.8035402519   -0.6664760704    1.5747534375
     H    -1.8114237806   -0.5477521181    1.4444538804
     H    -0.6598069254   -1.6793826912    1.5594658835
     H    -0.5752341816    0.9236532381    2.9736059083
     H     0.5967378990   -0.4051161708    3.1620318088
     H    -1.0794845964   -0.6161205497    3.7049421555
