37
-1.0888341331912625e+03 frame 49   xyz file generated by TeraChem
    Ni    -0.2225464070   -0.5036391006   -0.0204979123
     O     1.7351513741   -0.2279682392   -0.1659393104
     C     2.6248509997    0.2257731946    0.8350623585
     C     3.7634314560    0.6391251904    0.2488077002
     C     3.6166163456    0.4625932976   -1.1800606327
     C     2.3947278374   -0.0535439378   -1.4072501444
     H     2.2647851449    0.1386043440    1.8477029691
     H     4.6371554379    1.0171104274    0.7626998387
     H     1.8485212831   -0.3831842266   -2.2775485829
     H     4.3591582837    0.6852087309   -1.9346925839
     O    -0.8127705891   -1.4709571166   -1.6782311073
     C    -0.3826096763   -2.7529651969   -2.0926447361
     C    -0.7184884480   -2.9305724502   -3.3840511310
     C    -1.3821912266   -1.7275725719   -3.8367043558
     C    -1.4242855741   -0.8669219033   -2.8034316400
     H     0.0867622133   -3.3619109105   -1.3348725789
     H    -0.5372079542   -3.8237051677   -3.9670361123
     H    -1.8108980782    0.1261630776   -2.6402513427
     H    -1.7851534338   -1.5497269979   -4.8247584158
     O    -1.1955236512    1.2547600925   -0.3168912292
     C    -2.4839949687    1.5617568388    0.1691255723
     C    -2.5721558948    2.8934011183    0.3615410596
     C    -1.2982879038    3.4758060527    0.0047129251
     C    -0.4875431689    2.4756040606   -0.3919861073
     H    -3.1633700100    0.7275869872    0.2590614848
     H    -3.4526291112    3.4258063843    0.6961109439
     H     0.5201176183    2.4077792694   -0.7727908062
     H    -1.0426729980    4.5267575253    0.0285181946
     O    -0.5204212125   -0.5902779177    1.9708842732
     C    -0.4446535526    0.4594509201    2.9083829499
     C    -0.2050825864   -0.0595223605    4.1303916337
     C    -0.1171663864   -1.4937497453    3.9915781795
     C    -0.3072878056   -1.7894435184    2.6904200425
     H    -0.6112729560    1.4478202155    2.5108110377
     H    -0.1159950303    0.5039684005    5.0496596025
     H    -0.3940210036   -2.7052677730    2.1244685667
     H     0.0425527999   -2.2101058725    4.7863978105
