52
-1.7053640599864523e+03 frame 83   xyz file generated by TeraChem
    Fe    -0.4752507798    0.1801291856    0.5857614502
     N     1.4046886515    0.4541381149    0.8787082273
     C     2.5823287420    0.5934327659    1.0143013069
     S     4.1646065804    0.7860396548    1.2046901958
     C    -0.7126491028   -0.9579462061   -1.1690312701
     N    -0.7922915420   -1.5708616028   -2.1515372619
     C    -2.3092253209   -2.7576085900   -3.6875960068
     C    -2.7705637894   -4.0106271113   -3.2694603525
     C    -4.0748682204   -4.4191670503   -3.5801569557
     C    -4.9181160746   -3.5769822613   -4.3064347963
     C    -4.4599027672   -2.3265029002   -4.7257814341
     C    -3.1557358150   -1.9163590354   -4.4179524605
     H    -2.1135083935   -4.6802203513   -2.7198471368
     H    -4.4205368538   -5.3982308572   -3.2633410023
     H    -5.1064789022   -1.6731548450   -5.3033136207
     H    -2.7991897364   -0.9502705223   -4.7671235904
     H    -5.9246040390   -3.8982160784   -4.5554812764
     C    -0.8883184063   -2.3298381920   -3.3826609615
     H    -0.4778776258   -1.6874709576   -4.1681761407
     H    -0.2206447950   -3.1887527310   -3.2637790497
     C    -1.4257336758    2.0436887288    0.2991439289
     N    -1.8892629508    3.0931478601    0.1232842572
     C    -1.4338503236    5.5058641877    0.2572858777
     C    -1.3473306158    5.9892472129    1.5724379377
     C    -0.4393858289    7.0066462053    1.8918828125
     C     0.3814172445    7.5432590671    0.9016248047
     C     0.2954316812    7.0654147044   -0.4109694070
     C    -0.6121451734    6.0463542312   -0.7331428183
     H    -1.9976243443    5.5869511050    2.3455253720
     H    -0.3879706954    7.3815183560    2.9091986538
     H     0.9234325642    7.4901737342   -1.1879082673
     H    -0.6827076450    5.6944704325   -1.7592952871
     H     1.0791440363    8.3386386874    1.1439425990
     C    -2.4324086618    4.4202243227   -0.0888887601
     H    -2.7348527573    4.4635774854   -1.1396284744
     H    -3.3361318604    4.4822646938    0.5258630945
     C    -1.3515682689   -0.7851194940    2.2439642765
     N    -1.7774493937   -1.3247931160    3.1787902186
     C    -1.1642076550   -2.6934718634    5.1272895384
     C    -0.8628129183   -4.0333815158    4.8715988931
     C     0.1504357225   -4.6762294370    5.5974245481
     C     0.8623853353   -3.9794601761    6.5778044587
     C     0.5620503594   -2.6425477696    6.8364744857
     C    -0.4509306439   -1.9979885491    6.1134376034
     H    -1.4217966894   -4.5886113615    4.1224454777
     H     0.3711164087   -5.7208518304    5.4013279733
     H     1.1010870847   -2.0989895449    7.6060231769
     H    -0.6920719473   -0.9609626140    6.3341917854
     H     1.6398696503   -4.4826999615    7.1438199226
     C    -2.2735777038   -2.0028676705    4.3601865423
     H    -2.7734000624   -1.2374285081    4.9623341523
     H    -3.0325121211   -2.7107661638    4.0135236517
