22
-1.3201459325616572e+03 frame 69   xyz file generated by TeraChem
    Ni    -0.3330034504   -0.3564583977   -0.1917155773
     O     0.9486224213   -1.7749139250   -0.1947312966
     N     3.2453298347   -1.2425009301    0.4231639642
     C     2.1379804522   -1.4812616073    0.0899755174
     O    -0.0332325286   -0.1677055282   -2.0266175887
     N    -0.3556178990    1.8753669830   -3.3182566975
     C    -0.2213277721    0.9117540291   -2.6551811489
     O    -1.6119746023    1.0499273407   -0.1857757898
     N    -3.9587699912    0.4063078210   -0.0405573552
     C    -2.8230911332    0.7117320219   -0.1445415324
     C    -0.8828720288   -1.0170721167    4.5023607175
     C    -1.9870748270   -1.0349684296    3.6449667802
     C    -1.7928920440   -0.8398372327    2.2828100926
     N    -0.5756320626   -0.6394382022    1.7451417008
     C     0.4916253315   -0.6291277945    2.5678883878
     C     0.3816461706   -0.8077004876    3.9399760381
     S    -1.0064235789   -1.2478296956    6.2609582295
     H    -2.9955986583   -1.1915107618    4.0139132802
     H    -2.6413999606   -0.8197545401    1.6047389302
     H     1.4642457764   -0.4895274213    2.1061266830
     H     1.2782091139   -0.7842146574    4.5506834394
     H    -2.3492721119   -1.3636297591    6.3103124042
