25
-5.0342626251163546e+02 frame 36   xyz file generated by TeraChem
    Fe     0.0727857833   -0.0886674348   -0.1378943162
     N    -0.8560702983   -1.2841190516   -1.5626534615
     N    -1.0030507808   -1.1380519097    1.2984647103
     C    -2.0256370999   -1.9633336602    0.5253746747
     C    -1.4014750595   -2.4667948896   -0.7738164669
     H    -2.1507661558   -2.9875432538   -1.3837637031
     H    -0.5728654073   -3.1626175927   -0.6024748854
     H    -2.8936221257   -1.3216433212    0.3434449474
     H    -2.3528560760   -2.8038345335    1.1494350296
     H    -1.6269725584   -0.7739944327   -2.0211565655
     H    -0.2565244694   -1.6112327423   -2.3348131519
     H    -0.3816943125   -1.7576817279    1.8412203763
     H    -1.4771471330   -0.5589767283    2.0078048375
     N     2.1487822088   -0.0077992027   -0.0168584971
     N     0.1138178711    1.9796760953   -0.2623753622
     C     1.5200695611    2.3897393727    0.1621970644
     C     2.5266171521    1.4098572012   -0.4298274215
     H     3.5409213068    1.6282201345   -0.0733676360
     H     2.5410259519    1.4403881446   -1.5241224830
     H     1.5425503930    2.4002624921    1.2567718552
     H     1.7160630583    3.4105078547   -0.1885252876
     H     2.4680049031   -0.1906984132    0.9477153681
     H     2.6535540298   -0.6948639814   -0.5963905180
     H    -0.0678730239    2.2932128622   -1.2292383033
     H    -0.5887840881    2.4724204505    0.3092466269
