25
-8.1956201117895807e+02 frame 55   xyz file generated by TeraChem
    Fe     0.3578990457    0.0760332929    0.0305122923
     C     4.9629238194   -0.5117458190   -0.5589069287
     C     4.2672637056    0.4227111532   -1.3287067086
     C     2.8996842389    0.5660810400   -1.1433698080
     N     2.2382969322   -0.1869238760   -0.2347006508
     C     2.9009756174   -1.0885014236    0.5251460012
     C     4.2686582106   -1.2744150328    0.3821800033
     H     6.0335227546   -0.6391800162   -0.6861640166
     H     4.7729382089    1.0423860070   -2.0610481627
     H     2.2998615905    1.2857211463   -1.6865535431
     H     2.3021868964   -1.6269933141    1.2492524817
     H     4.7751686878   -2.0015442409    1.0072421802
     C    -2.1780859744   -2.7212850798   -2.7611277908
     C    -1.7844299598   -1.4555809117   -3.1986451017
     C    -1.0252606460   -0.6552675360   -2.3570570536
     N    -0.6608699928   -1.0816229159   -1.1250460206
     C    -1.0427340877   -2.3043521076   -0.6881672990
     C    -1.8020232997   -3.1478799090   -1.4865349608
     H    -2.7730034707   -3.3640946364   -3.4025692610
     H    -2.0635462225   -1.0819544389   -4.1776701380
     H    -0.7045177368    0.3418450451   -2.6302999586
     H    -0.7341184184   -2.5696266431    0.3149530246
     H    -2.0947901037   -4.1196210204   -1.1044800067
     F     0.1817687468    1.5528880609   -0.8478580713
     F     0.1821976314   -0.7953581110    1.5067503672
