25
-6.0553853199058517e+02 frame 36   xyz file generated by TeraChem
    Cr    -0.0922755030   -0.2846701119   -0.0347019427
     C     4.5635586788    0.8523866741   -0.2618081047
     C     3.7798829348    0.7739878685   -1.4158411893
     C     2.4440061832    0.4205225385   -1.2956041103
     N     1.8798488704    0.1441605585   -0.0951317162
     C     2.6387289431    0.2227472608    1.0231282582
     C     3.9820433670    0.5718835960    0.9750525491
     H     5.6108175946    1.1313289124   -0.3268374050
     H     4.1924967026    0.9895368282   -2.3952820609
     H     1.7978460597    0.3650598797   -2.1671886707
     H     2.1374326297   -0.0049779170    1.9564751777
     H     4.5540527785    0.6236538336    1.8948959961
     C    -1.1345453332   -3.8047103107   -3.1276078831
     C     0.0245381289   -3.8583969397   -2.3490725429
     C     0.3036023948   -2.8042452401   -1.4919076513
     N    -0.5078470136   -1.7248749699   -1.3919554645
     C    -1.6316103453   -1.6736156923   -2.1451951597
     C    -1.9737748482   -2.6948667083   -3.0218584415
     H    -1.3801180576   -4.6179648658   -3.8036991236
     H     0.7002224190   -4.7052421772   -2.3981068231
     H     1.1848673434   -2.8104113345   -0.8572372081
     H    -2.2505082833   -0.7909158936   -2.0272071896
     H    -2.8842306436   -2.6155834617   -3.6057216612
     I    -1.2056002196    1.9545577820   -0.5231814261
     I    -0.9021420914   -1.2174478314    2.1864465220
