17
-1.5413272932961258e+03 frame 33   xyz file generated by TeraChem
    Ni    -0.1844092152    0.0631004221   -0.3678859834
     P     2.2155545330   -0.0406064060    0.1565409704
     H     2.7187549724    0.9358985517    1.0369142469
     H     2.6865433235   -1.2321279954    0.7398585601
     H     3.0761552201    0.0978841490   -0.9503057143
     P    -0.5333446163   -2.1564905131   -1.4158724470
     H     0.0584032789   -2.3357355949   -2.6815816179
     H    -0.0647488550   -3.2845543541   -0.7170278692
     H    -1.8716989392   -2.5128774288   -1.6725064530
     P    -0.5231086683    2.4947457008   -0.7065955205
     H     0.1082268906    3.0511139290   -1.8362378929
     H    -1.8571810995    2.9070384375   -0.8923576813
     H    -0.0944133879    3.3595951924    0.3174018778
     P    -1.2253282218   -0.2736648277    1.8335779678
     H    -0.9543067391   -1.4909382252    2.4867136568
     H    -0.9213205754    0.6699173893    2.8331125566
     H    -2.6340548747   -0.2523102316    1.8361262139
