17
-3.4855755335231811e+02 frame 41   xyz file generated by TeraChem
    Fe    -0.0150695747   -0.0039001097   -0.0078464095
     N     2.0630502645    0.1553256153    0.1344680970
     H     2.3864128856    1.1290280112    0.2718767099
     H     2.4661673146   -0.3789687805    0.9241717393
     H     2.5638047625   -0.1827823210   -0.7061398424
     N    -0.4838786666   -1.4804277186   -1.4033326122
     H    -0.1470357038   -1.2683629265   -2.3592742900
     H    -0.0833116009   -2.4065601682   -1.1705321040
     H    -1.5016293114   -1.6418088140   -1.5049043845
     N    -0.7860328784    1.8438460664   -0.5890079495
     H    -0.3395288614    2.2262142523   -1.4413478829
     H    -1.7980808478    1.8075451054   -0.8044940871
     H    -0.6871200203    2.5843602269    0.1278482925
     N    -0.7921656191   -0.5193328420    1.8577008800
     H    -0.6573225273    0.2106099850    2.5795511607
     H    -1.8121897872   -0.6954698542    1.8345838387
     H    -0.3763059130   -1.3794190559    2.2566242797
