31
-1.0110148962554103e+03 frame 52   xyz file generated by TeraChem
    Ni    -0.1364186068    0.0535039971   -0.0294615647
     O    -0.6768555440   -1.2340097273   -1.4350147690
     C    -1.4065565535   -2.1949635438   -0.9040311563
     C    -1.7246070843   -2.0972748086    0.5104959285
     C    -2.5112046937   -3.0992040769    1.0969094928
     C    -3.0020251946   -4.2004888048    0.3587483983
     C    -2.6915450948   -4.2836508078   -0.9984833029
     C    -1.9049342141   -3.2940255821   -1.6209511933
     O    -1.2558621512   -1.0506596701    1.1674019006
     H    -2.7401695007   -3.0066461668    2.1604508923
     H    -3.0602992377   -5.1279735283   -1.5861765047
     H    -1.6676295838   -3.3627875838   -2.6830941128
     C    -3.8371968534   -5.2651993882    1.0354844990
     H    -4.7505056065   -4.8575235949    1.5011204685
     H    -3.2923862522   -5.7845876986    1.8422354827
     H    -4.1567124914   -6.0333582767    0.3172582135
     O     1.8158622984    0.2005423329    0.3128859767
     C     2.2423124312    1.4294345527    0.1150826698
     C     1.2511612854    2.4191890221   -0.2608679780
     C     1.6574022764    3.7433264316   -0.4724116743
     C     3.0069221926    4.1434627150   -0.3322326229
     C     3.9523981701    3.1840635414    0.0296464533
     C     3.5767592530    1.8433688725    0.2505670092
     O     0.0050527637    1.9966714281   -0.3711210641
     H     0.8942698403    4.4721837795   -0.7525885081
     H     4.9999570573    3.4748594606    0.1415950512
     H     4.3207713957    1.0988271503    0.5354140145
     C     3.4064628155    5.5808812419   -0.5818464880
     H     2.8626583864    6.2914844474    0.0635562009
     H     3.2101632476    5.9041063049   -1.6186759486
     H     4.4791519161    5.7343671662   -0.3964603652
