25
-6.5331144286817857e+02 frame 78   xyz file generated by TeraChem
    Fe    -0.5042876080    0.1473248354   -0.4410609987
     C     1.3460417916    0.3294524730   -0.6750372412
     N     2.4827479573    0.4495145344   -0.8436557983
     C     3.8930743259    0.6049882354   -1.0733405504
     H     4.2355499093   -0.2324769518   -1.6906561637
     H     4.3998017445    0.6022550389   -0.1018554380
     H     4.0534941007    1.5576426633   -1.5899531796
     C    -0.7319371987   -1.5599373259   -1.3630901028
     N    -0.9289719564   -2.5353363261   -1.9553432911
     C    -1.1954341466   -3.7261171121   -2.7067006747
     H    -0.4539270433   -4.4835674382   -2.4256451823
     H    -1.1123341968   -3.4867250016   -3.7730154529
     H    -2.2069568716   -4.0696196495   -2.4627879613
     C    -0.8519841456    2.0254588674   -0.0306258644
     N    -1.1170758896    3.1377628750    0.1525591592
     C    -1.4676208901    4.5119125424    0.3561131475
     H    -1.3845754691    5.0347123252   -0.6036751551
     H    -0.7707105303    4.9404650038    1.0863586336
     H    -2.4951284550    4.5550087932    0.7343861136
     C    -0.6439858949   -0.5385114521    1.2983446763
     N    -0.7563661661   -0.9599584680    2.3682539238
     C    -0.9177158846   -1.4826424543    3.6972679714
     H    -0.4272261388   -0.7979786120    4.3976827603
     H    -0.4547017142   -2.4746670112    3.7355944676
     H    -1.9907300399   -1.5490251947    3.9097360691
