44
-2.1578692776191665e+03 frame 54   xyz file generated by TeraChem
    Fe    -0.1216224124   -0.0633890670   -0.1117385845
     C     2.8707184470   -0.9856092438    0.2613543213
     N     2.0006025519    0.0754331743   -0.3547561499
     H     2.1968390562    0.0955775293   -1.3606974943
     H     2.3280031042    0.9897386381   -0.0284809894
     H     2.6102127358   -1.9537189497   -0.1702850298
     H     2.7006501491   -1.0142141108    1.3389952151
     H     3.9275593140   -0.7859791320    0.0687665828
     C    -2.2288103275   -3.3812530781   -3.0388013835
     C    -1.0480239917   -3.6727418979   -2.3188857335
     C    -0.4963519236   -2.6993980221   -1.5074209098
     N    -1.0314116222   -1.4575200104   -1.3587974082
     C    -2.1702827778   -1.1790349747   -2.0481279122
     C    -2.7898054497   -2.0920929459   -2.8802897314
     S    -3.0394391230   -4.4962641195   -4.1048492784
     H    -0.5615929505   -4.6401453829   -2.3902471154
     H     0.4114438152   -2.9122179576   -0.9506793913
     H    -2.5916315318   -0.1874398449   -1.9185189872
     H    -3.6974522364   -1.8066768629   -3.4031217977
     H    -2.1787361668   -5.5290935470   -3.9683722868
     C    -1.7237885979    4.4086505651   -1.3582876040
     C    -1.0962455022    3.5702795736   -2.3074526715
     C    -0.7029925388    2.3004541644   -1.9275355209
     N    -0.8846093830    1.8033685893   -0.6746775484
     C    -1.4960047191    2.6077547389    0.2348725330
     C    -1.9222890389    3.8899209160   -0.0572847368
     S    -2.2741545818    6.0311781931   -1.6789105647
     H    -0.9126956403    3.8985418650   -3.3253934442
     H    -0.2212931104    1.6460809618   -2.6487029832
     H    -1.6467273202    2.1980798917    1.2284497166
     H    -2.4060079984    4.4809372571    0.7143220233
     H    -1.8831153883    6.0992018111   -2.9707155885
     C    -0.9041692095   -0.9033461573    4.6513573580
     C    -1.6474978471   -1.5682690074    3.6504755768
     C    -1.3875733560   -1.2937381435    2.3200238311
     N    -0.4462436049   -0.4010114992    1.9124340285
     C     0.2677437421    0.2398424835    2.8782954549
     C     0.0770920851    0.0252901415    4.2288632742
     S    -1.1071973184   -1.1476293728    6.3646677308
     H    -2.4149350277   -2.2936138667    3.9001921805
     H    -1.9475276684   -1.8009056532    1.5406231254
     H     1.0160287361    0.9531698456    2.5453820625
     H     0.6815207779    0.5705566828    4.9472732920
     H    -2.0931722069   -2.0691287749    6.2960756652
