53
-1.4013875717756200e+03 frame 99   xyz file generated by TeraChem
    Mn    -0.0070611628   -0.0028802428    0.0160277898
     C     1.5912702322    0.8361467678    0.8573584014
     N     2.5367201765    1.3199880163    1.3427578259
     C     3.6581459298    1.8908129459    1.9152864116
     C     4.2131438648    3.0417600401    1.3311779178
     C     5.3413995875    3.6065254396    1.9140240479
     C     5.9043923595    3.0312361891    3.0588014999
     C     5.3418529466    1.8844495117    3.6305246771
     C     4.2135831590    1.3031237706    3.0641973126
     H     3.7626461833    3.4715073513    0.4430075620
     H     5.7839519391    4.4954978331    1.4769259771
     H     5.7847983437    1.4445826409    4.5179350191
     H     3.7635156737    0.4133912230    3.4911625285
     H     6.7858908507    3.4784895987    3.5072697012
     C    -1.6055227110   -0.8418364764   -0.8250903156
     N    -2.5511000629   -1.3256614636   -1.3102503868
     C    -3.6725850300   -1.8965325722   -1.8826300327
     C    -4.2280444483   -3.0469397581   -1.2978951121
     C    -5.3563341815   -3.6117510635   -1.8806336922
     C    -5.9189047472   -3.0370404193   -3.0259084814
     C    -5.3559139975   -1.8907805365   -3.5982424890
     C    -4.2276101028   -1.3094120636   -3.0320299906
     H    -3.7778998347   -3.4762228698   -0.4093204404
     H    -5.7992526189   -4.5003031911   -1.4430523447
     H    -5.7985295826   -1.4513596538   -4.4860383156
     H    -3.7771742797   -0.4201008131   -3.4594836140
     H    -6.8004285618   -3.4843326447   -3.4742878976
     C    -0.0054728779    1.4056508971   -1.3918748023
     N    -0.0042388271    2.2314179597   -2.2174777530
     C    -0.0025988164    3.2091206330   -3.1951753480
     C    -0.8725342736    3.0814182007   -4.2909020216
     C    -0.8616873000    4.0692856321   -5.2685448923
     C     0.0006486319    5.1652043892   -5.1514721307
     C     0.8613590983    5.2809566051   -4.0541397309
     C     0.8689516659    4.3034087585   -3.0661384001
     H    -1.5322722502    2.2235516323   -4.3644272864
     H    -1.5251332187    3.9865288505   -6.1230718132
     H     1.5260992655    6.1343817966   -3.9703890626
     H     1.5274075373    4.3759437948   -2.2072026524
     H     0.0019199586    5.9326895314   -5.9190495110
     C    -0.0086434478   -1.4114685946    1.4238340897
     N    -0.0099230240   -2.2372634432    2.2494213286
     C    -0.0115484657   -3.2150066063    3.2270641932
     C    -0.8794909770   -4.3118514817    3.0954197339
     C    -0.8719098256   -5.2894283702    4.0833914404
     C    -0.0148084702   -5.1711636553    5.1832770801
     C     0.8439250284   -4.0727033131    5.3029463695
     C     0.8547694263   -3.0847809505    4.3253559021
     H    -1.5351521979   -4.3863135073    2.2345106054
     H    -1.5338506391   -6.1448279695    3.9976352360
     H     1.5045692924   -3.9880042629    6.1594514959
     H     1.5117247196   -2.2249519889    4.4008765716
     H    -0.0160860911   -5.9386812724    5.9508225033
