53
-1.2706114463659567e+03 frame 133   xyz file generated by TeraChem
    Fe     0.2217892919   -0.2169581465   -0.2556129541
     N    -0.9237877417   -1.1813232294   -1.5701680409
     N    -0.5007211031   -1.6072584450    0.9708117124
     C    -1.0001140249   -0.9658857669   -2.8894665226
     H    -0.4654577105   -0.1055238209   -3.2775849063
     C    -1.7139425080   -1.8024743836   -3.7598430644
     H    -1.7254968550   -1.5691474493   -4.8200700489
     C    -2.3945891612   -2.9260043175   -3.2649374182
     C    -2.2974564747   -3.1495403124   -1.8794977254
     H    -2.7876942306   -4.0170655071   -1.4517759125
     C    -2.0854159842   -3.4298736616    1.1380019789
     H    -2.7871523218   -4.0978773699    0.6520926721
     C    -1.9036093500   -3.5285721363    2.5263192893
     C    -1.0047833050   -2.6117476952    3.1016442139
     H    -0.8247486592   -2.6084397870    4.1726889860
     C    -0.3305697206   -1.6827072427    2.2984260219
     H     0.3579089408   -0.9725947821    2.7444097976
     C    -1.5638859088   -2.2852805042   -1.0558234248
     C    -1.3938851108   -2.4718748243    0.3821780949
     C    -2.6247800560   -4.5475581380    3.3542027949
     C    -3.1710739011   -3.8493573945   -4.1535344347
     H    -3.1646209694   -3.5156891765   -5.1929070619
     H    -4.2131999974   -3.9225040987   -3.8191044490
     H    -2.7511394527   -4.8625171631   -4.1148513490
     H    -3.4114564728   -5.0525317673    2.7898749040
     H    -3.0683391769   -4.0864106554    4.2436166817
     H    -1.9178424358   -5.3092304178    3.7101525308
     N     1.9813160746    0.2834666650    0.5246264710
     N     0.3330121857    1.6336887788   -0.9770508841
     C     2.8194840920   -0.5135124467    1.2013802648
     H     2.4622387760   -1.5088446035    1.4446313582
     C     4.1088651396   -0.1157500384    1.5789326723
     H     4.7382029846   -0.8171059704    2.1190238579
     C     4.5797895434    1.1706208898    1.2559976476
     C     3.6975248732    1.9917876556    0.5368838590
     H     4.0220149644    2.9833411203    0.2432556989
     C     1.6244104776    3.6806359849   -0.9105693820
     H     2.5188953836    4.2045720113   -0.5937692304
     C     0.6373311258    4.3865040207   -1.6165088591
     C    -0.5112814540    3.6572666982   -1.9741393899
     H    -1.3292257081    4.1347821960   -2.5058457733
     C    -0.6206627184    2.3002207105   -1.6424430826
     H    -1.5118425496    1.7435643262   -1.9123748408
     C     2.4194473582    1.5402588031    0.1767792376
     C     1.4586078616    2.3245908372   -0.5932480192
     C     0.7862434312    5.8361615570   -1.9621868420
     C     5.9496349021    1.6246659365    1.6558821220
     H     6.7105851977    0.9229448497    1.2933805479
     H     6.0371830119    1.6473242317    2.7499575569
     H     6.1834388313    2.6200869241    1.2728115365
     H     1.7037379453    6.2642117557   -1.5535750835
     H    -0.0668877734    6.4125744851   -1.5843221500
     H     0.7987484276    5.9687799333   -3.0518543410
