9
-5.5575758601277801e+02 frame 23   xyz file generated by TeraChem
    Mn    -0.0003205292    0.0005564753    0.0008268091
     C     1.7494654734    0.8967489518    0.8951114799
     O     2.6595071018    1.3578206896    1.3568609438
     C    -1.7502172755   -0.8954550153   -0.8951437488
     O    -2.6606909129   -1.3576751953   -1.3548711070
     C    -0.0007863479    1.5279598783   -1.5276066805
     O    -0.0009676657    2.3189861209   -2.3200820256
     C     0.0012033156   -1.5283880797    1.5267765899
     O     0.0026767993   -2.3206025971    2.3180963189
