10
-2.9047953204706880e+02 frame 42   xyz file generated by TeraChem
    Fe     0.1568828524    0.2146211786    0.4584820232
     C     3.1639016714   -0.1500996304   -0.0562406418
     N     2.0230443523   -0.0043105619    0.1399126506
     C     4.5875790064   -0.3273287408   -0.3114566748
     H     5.1448904405   -0.3110579317    0.6368856492
     H     4.9547411345    0.4872670605   -0.9534406592
     H     4.7649932190   -1.2888500805   -0.8154182795
     I    -0.6918114727   -1.2815992536   -1.4398384246
     I    -0.0196858837    2.7036180322   -0.0970601657
     I    -1.3853137203   -0.0421731073    2.4355833606
