41
-1.1006526917239394e+03 frame 99   xyz file generated by TeraChem
    Co    -0.3370363078   -0.4222497873    0.7906217911
     C     1.4149669196   -0.2102872012    0.0605914869
     N     2.4737759933    0.0114424153   -0.3628268253
     C     4.9629138952   -0.2375339972   -0.4296172621
     C     4.9936302489   -1.0841643760    0.6811906831
     C     6.2119171748   -1.6035015629    1.1067415476
     C     7.4229143945   -1.2774522604    0.4176335275
     C     7.3945474367   -0.4299993383   -0.6971634662
     C     6.1818362297    0.0855714824   -1.1232335013
     H     4.0836565072   -1.3376375098    1.2145114390
     H     6.2555960301   -2.2597993104    1.9704345703
     H     8.3109673370   -0.1810076700   -1.2220426479
     H     6.1469509289    0.7443396832   -1.9874449520
     H     8.3630120166   -1.6927049807    0.7689300764
     C     3.7110817232    0.4159060318   -0.9710828932
     H     3.6177264676    0.2221951880   -2.0484020307
     H     3.7755638274    1.5079775127   -0.8530404999
     C    -0.8306132095   -1.7059847726   -0.5257648009
     N    -1.1365362622   -2.5246729586   -1.2909709732
     C    -2.7724970589   -3.4534268233   -2.9167715554
     C    -2.9385559437   -2.4252303388   -3.9016815523
     C    -4.1223168209   -2.3156495832   -4.6379378738
     C    -5.1479196677   -3.2277982604   -4.4183260011
     C    -4.9870209286   -4.2561481905   -3.4441745037
     C    -3.7999206011   -4.3588340804   -2.6954553660
     H    -2.1235641510   -1.7325078847   -4.0970792273
     H    -4.2270340607   -1.5351631387   -5.3844316044
     H    -5.7882153237   -4.9721864340   -3.2854015888
     H    -3.6947624167   -5.1607587347   -1.9707051089
     H    -6.0706860994   -3.1726743498   -4.9878407752
     C    -1.4445963951   -3.6127590826   -2.1998888086
     H    -0.6147266122   -3.6586313698   -2.9155099947
     H    -1.4250700465   -4.5289923431   -1.6025470140
     C     0.2196372234    1.0362261442    3.2868216606
     O     0.0696333476    0.9947983816    2.0657624868
     H     0.2015475736    0.1303812275    3.9092740049
     H     0.3759153606    2.0097305226    3.7682061687
     C    -3.1493776385   -0.1563481525    1.6559485329
     O    -2.0318482733   -0.6697510570    1.7028203393
     H    -3.4089078269    0.6111064707    0.9134391298
     H    -3.9090246656   -0.4751713859    2.3805672816
