31
-8.6121028444981687e+02 frame 72   xyz file generated by TeraChem
    Fe     0.0091504041    0.3991274277    0.1565846791
     C     3.0104345346    0.0281809426   -0.3803926348
     N     1.8812479605    0.1145275446   -0.1003985821
     C     4.4102055133   -0.0673458131   -0.7206784085
     H     5.0165168500    0.4301298965    0.0488555262
     H     4.5882329983    0.4182931776   -1.6903604888
     H     4.7041681112   -1.1244677465   -0.7862889543
     C    -0.9400403190   -1.3376232045   -2.1507360228
     N    -0.6190601238   -0.7213112956   -1.2170907276
     C    -1.3421189574   -2.1061621473   -3.3078352294
     H    -0.4536478273   -2.4141687607   -3.8751139649
     H    -1.9917733790   -1.4965597145   -3.9503651777
     H    -1.8910807919   -3.0016203758   -2.9851138065
     C    -2.0668897753    2.6352990289    0.1698555051
     N    -1.3442634837    1.7194448136    0.1967463605
     C    -2.9559209589    3.7706615975    0.1352194203
     H    -2.6721180267    4.4349087426   -0.6937391503
     H    -2.8922458450    4.3236550266    1.0825635604
     H    -3.9890628311    3.4272618177   -0.0176317814
     C    -0.7811651747   -1.6956323588    4.1913239231
     C    -1.6662792929   -1.8927769453    3.1060682653
     C    -1.4020237376   -1.2808088387    1.8960879726
     N    -0.2920395371   -0.5041581110    1.7416608175
     C     0.5796299394   -0.2998007642    2.7713140021
     C     0.3573939848   -0.8773301115    4.0066809525
     C    -1.0296520723   -2.3128236219    5.4461703942
     H    -2.5512401669   -2.5133727199    3.2108098515
     H    -2.0609877814   -1.3970252769    1.0434629294
     H     1.4512973950    0.3185709120    2.5833524628
     H     1.0636154545   -0.7059539569    4.8137200727
     N    -1.2353218699   -2.8195446462    6.4770470662
