25
-1.1340294468140007e+03 frame 77   xyz file generated by TeraChem
    Co    -0.5752524933    0.1254075442    0.2707919563
     C     2.2585937480    0.7296261452   -0.6689670520
     O     1.4129771178    0.4388673999    0.1821897279
     H     3.3037596277    0.8620850507   -0.3613027705
     H     1.9992252375    0.8574956918   -1.7285001748
     C    -1.3680041660   -2.2729606642   -1.4759750593
     O    -1.4419460451   -1.5030414441   -0.5142257157
     H    -2.1146199832   -3.0705708165   -1.5819201658
     H    -0.5746628056   -2.1851312273   -2.2304909633
     C    -1.6415110660    2.2737105323   -1.8138096678
     O    -1.2257817723    1.4712392581   -0.9760671499
     H    -2.2994924467    3.0967757607   -1.5036755658
     H    -1.3614163398    2.1783003180   -2.8720419485
     C    -0.7300516404   -1.2877360467    4.8691921031
     C    -1.7306082876   -1.7008267409    3.9507876304
     C    -1.6122858746   -1.3026959424    2.6257691018
     N    -0.5839950311   -0.5294849031    2.1894982143
     C     0.3835172808   -0.1440942342    3.0532575336
     C     0.3524663134   -0.4945880969    4.4001233044
     S    -0.7259878697   -1.6955598452    6.5581120387
     H    -2.5787138051   -2.3103986606    4.2493358076
     H    -2.3496193917   -1.6046753070    1.8889159692
     H     1.1946632575    0.4540787483    2.6529882709
     H     1.1463133301   -0.1557928709    5.0609317738
     H    -1.8719821502   -2.4254866864    6.5912698713
