9
-4.4843897693533080e+02 frame 37   xyz file generated by TeraChem
    Co    -0.1679642969   -0.1967472732    0.0835208647
     O     1.6586281475    0.1605234361   -0.2265936026
     H     2.1239034712   -0.6853626190   -0.1171054412
     O    -0.7390197214   -1.4781372493   -1.1267812468
     H    -0.7270456093   -1.0521281479   -1.9991395400
     O    -0.9903560623    1.4507901486   -0.2903006506
     H    -0.2195419268    2.0023505926   -0.5077975608
     O    -0.4691134506   -0.5362418577    1.8773611509
     H    -0.4695913476    0.3349062581    2.3068068814
