31
-2.4199265551077310e+03 frame 132   xyz file generated by TeraChem
    Co     0.0992483060   -0.1981176645   -0.3263952308
     S     1.7999956646   -1.8256032122   -0.3878008896
     C     2.7590582203   -0.4752305937   -0.0633605262
     N     3.3132859517    0.5301808333    0.1780540449
     S     0.4033152141   -0.5735913569   -2.6351395748
     C    -1.0229945555   -1.4353337382   -2.3663733616
     N    -2.0097092944   -1.9820582845   -2.0434158106
     C    -2.5911407688    3.6827495892   -0.7884229580
     C    -1.1889230105    3.7555065421   -0.7122948729
     C    -0.4534878153    2.5907812062   -0.5776996290
     N    -1.0272335053    1.3695352456   -0.5100484095
     C    -2.3736449623    1.2892005166   -0.5848434136
     C    -3.1784847079    2.4056704116   -0.7225879684
     S    -3.6434218964    5.0791592058   -0.9635134676
     H    -0.6655219110    4.7042611752   -0.7627628460
     H     0.6310086390    2.6298003786   -0.5284487450
     H    -2.8092753544    0.2957263561   -0.5512029554
     H    -4.2542524968    2.2787152458   -0.7839468488
     H    -2.6691321875    6.0108878712   -0.9954949695
     C    -0.7263175558   -0.5844198094    4.3331307890
     C     0.2992193384    0.2468567349    3.8504613084
     C     0.5146259229    0.3425347675    2.4858488968
     N    -0.2237869324   -0.3361993747    1.5829348088
     C    -1.2103763480   -1.1417659383    2.0385361122
     C    -1.4902340628   -1.2897124395    3.3839634635
     S    -1.1070974340   -0.7976199398    6.0351405560
     H     0.9327456273    0.8162188751    4.5221557823
     H     1.3128760919    0.9652189897    2.0940639901
     H    -1.7797271476   -1.6873120335    1.2919015827
     H    -2.2915221285   -1.9543751290    3.6893630177
     H    -0.1461406315    0.0155658748    6.5187543758
