19
-1.8073431981879583e+03 frame 43   xyz file generated by TeraChem
    Mn     0.0965750180    0.1067639145   -0.5694067518
     N     2.0578440534   -0.1544138798   -0.2400580342
     C     3.2121218902   -0.3026981952    0.0061097676
     S     4.7839161165   -0.5049967429    0.3548267723
     N    -1.0388880224   -1.3744885526   -1.3188072312
     C    -1.7495182450   -2.2483157507   -1.6995156759
     S    -2.7256266940   -3.4425857729   -2.2071546489
     N    -0.6856959213    1.9428765734   -0.6742424035
     C    -1.1608496007    3.0314510825   -0.7336701869
     S    -1.8089023318    4.5169167691   -0.8120704675
     O    -0.5189344892   -0.5629746289    1.6625460093
     C    -1.7407544706   -1.0221487007    2.0917938681
     C    -1.7320954130   -1.1444499419    3.4429055432
     C    -0.4241863159   -0.7393941764    3.8857937850
     C     0.2732337523   -0.3980056562    2.7734432789
     H    -2.4615892440   -1.2079663640    1.3115603232
     H    -2.5538505180   -1.4868729974    4.0562780548
     H     1.2759673739   -0.0563598705    2.5706734847
     H    -0.0559001350   -0.7139446589    4.9018817327
