41
-1.0795547287931693e+03 frame 38   xyz file generated by TeraChem
    Fe     0.2900135754    0.4055093070   -0.1546024237
     O     2.0407903940   -0.6284896913   -0.4203163891
     C     3.0444218712   -0.6459744112    0.5623795103
     C     4.2515425356   -0.5039175882   -0.0247517779
     C     4.0306109616   -0.3814140273   -1.4436951063
     C     2.6991556939   -0.4565118614   -1.6538517252
     H     2.6968683312   -0.7970281666    1.5712576077
     H     5.2072587003   -0.5048488298    0.4815616944
     H     2.0645093343   -0.4810807938   -2.5264937257
     H     4.7878819939   -0.2755736646   -2.2086846582
     O    -0.6697098284   -0.8192323303   -1.3836324702
     C    -0.3317043139   -2.1524202671   -1.6977521231
     C    -1.2309857974   -2.6379447648   -2.5771899100
     C    -2.1861890589   -1.5931770877   -2.8494433934
     C    -1.8307633921   -0.5168502889   -2.1210655184
     H     0.5515816437   -2.5384731666   -1.2169491935
     H    -1.2238117022   -3.6331189087   -3.0009394711
     H    -2.2160635463    0.4804273183   -1.9963805279
     H    -3.0340193581   -1.6518053321   -3.5182981598
     C    -2.6705743672    4.1056772527   -0.0649275411
     C    -1.4131584938    4.1580667895   -0.6700867501
     C    -0.6225509547    3.0164583853   -0.6634059971
     N    -1.0242524023    1.8553940653   -0.0882756166
     C    -2.2437015209    1.8086283417    0.4988217241
     C    -3.0892545649    2.9100794212    0.5255605873
     H    -3.3138476642    4.9803084051   -0.0551540444
     H    -1.0470139005    5.0632238391   -1.1423810595
     H     0.3615094318    3.0194082251   -1.1301509182
     H    -2.5324280003    0.8616499886    0.9405366505
     H    -4.0603498732    2.8279650014    1.0020944000
     C    -0.5533241308   -1.2533209708    4.1826973966
     C    -0.1047479506    0.0541293620    3.9814589001
     C     0.0933171169    0.5034011242    2.6824642763
     N    -0.1218364431   -0.2903250891    1.6058863737
     C    -0.5530796543   -1.5575091360    1.7988651548
     C    -0.7823205523   -2.0671186498    3.0716993528
     H    -0.7218661990   -1.6297600696    5.1869883649
     H     0.0859842845    0.7229511625    4.8139139602
     H     0.4295250585    1.5176412752    2.4855341909
     H    -0.7148601939   -2.1613076792    0.9130415961
     H    -1.1327925311   -3.0878111048    3.1815531306
