9
-1.0913533386763806e+03 frame 14   xyz file generated by TeraChem
    Cr     0.5350833330   -0.5953306162   -0.5312507034
     S     2.7339048556   -0.2597262652   -0.8531176643
     C     3.3243297401    0.5130895491    0.5424476661
     N     3.7879765337    1.0442803503    1.4752285681
     S     0.1936100032   -1.5979081174   -2.5152098382
     C    -1.4627655524   -1.9787974532   -2.5827793074
     N    -2.5919516505   -2.2650242914   -2.6843651925
     I    -0.7081429790    1.6698435807   -0.4020442707
     I     0.1096084986   -2.2374811676    1.4220879857
