22
-1.0342749426132518e+03 frame 70   xyz file generated by TeraChem
    Co    -0.3083451637   -0.2931097631    0.2757616159
     S     1.9501758757   -0.5829882997    0.6535313409
     C     2.4101443208    0.7257962543   -0.3169206148
     N     2.6827153810    1.6535485693   -0.9758084618
     C    -1.2875094941   -1.8078649273   -2.3544049663
     N    -1.0432482999   -1.2543292942   -1.3679994024
     C    -1.5911639328   -2.5025777661   -3.5954649745
     H    -0.6581790719   -2.7962577700   -4.0876236177
     H    -2.1568066552   -1.8422812710   -4.2606080053
     H    -2.1849055200   -3.3977590551   -3.3849100302
     C    -0.2147474682    2.7618976176   -0.2929411175
     N    -0.5895798484    1.7050140859   -0.0010383270
     C     0.3023427441    4.0643293949   -0.6708521804
     H     1.3279038561    3.9152994909   -1.0307607512
     H     0.3111514253    4.7319728535    0.1963771380
     H    -0.3121762090    4.5027458194   -1.4631557643
     C    -1.7513641242   -1.3062666275    2.9446739236
     N    -1.2942735943   -0.9541009224    1.9418416761
     C    -2.3238620444   -1.7465238585    4.2073283946
     H    -1.5446342238   -1.7685786294    4.9760922795
     H    -2.7467334714   -2.7497726350    4.0940474686
     H    -3.1141832290   -1.0547267631    4.5159434711
