15
-5.8125022013158616e+02 frame 117   xyz file generated by TeraChem
    Co    -0.5078407877   -0.1074440852    0.1672309469
     C    -0.0145902859    1.1789020703    1.4313414707
     N     0.2848323812    1.9944890709    2.2110034928
     C    -1.0789409192   -1.5863754732   -2.3486025810
     O    -1.0738052434   -1.5401160959   -1.1242397972
     H    -0.7357937009   -0.7425235164   -2.9628785022
     H    -1.4363782224   -2.4954844792   -2.8487527240
     C    -0.3983980645    2.3890783225   -1.2698605392
     O    -0.5265081491    1.1626835222   -1.2997170203
     H    -0.4424161526    2.9381521411   -2.2178754076
     H    -0.2410168299    2.9280934710   -0.3292232725
     C    -0.3796413655   -1.5197022292    2.6805571168
     O    -0.5135884516   -1.5512460069    1.4570846897
     H    -0.2233836707   -0.5808400580    3.2238101207
     H    -0.4180686853   -2.4692302857    3.2275137990
