31
-1.1672467792464481e+03 frame 146   xyz file generated by TeraChem
    Fe    -0.1766925829   -0.2953023707    0.0767445356
     C     2.8853474545   -0.7514889425    0.3880202417
     N     1.7355324683   -0.5960920531    0.3668072836
     C     4.3231767451   -0.9477322075    0.4092252094
     H     4.7274157029   -0.6915991481    1.3949084817
     H     4.7907340312   -0.3061876650   -0.3479761014
     H     4.5563381994   -1.9951224970    0.1817674135
     C     0.2655318161   -0.7518521838   -2.9621422955
     N     0.1024543970   -0.5703633165   -1.8287993737
     C     0.4685391320   -0.9771235475   -4.3824001634
     H     1.5407473492   -1.0262378971   -4.6037099256
     H     0.0208248736   -0.1565028717   -4.9552025610
     H    -0.0028720272   -1.9219706310   -4.6781277392
     C    -3.1854537935    0.1105958457   -0.6020320421
     N    -2.0824017678   -0.0072674343   -0.2613282736
     C    -4.5641156768    0.2540652788   -1.0323561774
     H    -4.5923534362    0.6596286797   -2.0508422267
     H    -5.1034929665    0.9308558239   -0.3601603283
     H    -5.0536486277   -0.7277079578   -1.0255983209
     C    -0.8543615133    0.3044250252    4.8164452253
     C    -0.9503642610    1.4038729751    3.9232097513
     C    -0.7608476046    1.1694752640    2.5685752278
     N    -0.4759599541   -0.0609948880    2.0707227417
     C    -0.3784467970   -1.1115329242    2.9163252848
     C    -0.5642402479   -0.9839828510    4.2888567643
     S    -1.0693778105    0.4182831113    6.5328770942
     H    -1.1668917248    2.4118132392    4.2650282266
     H    -0.8371688476    1.9882703756    1.8594118095
     H    -0.1512222241   -2.0786410387    2.4803994568
     H    -0.4840830072   -1.8606789119    4.9261267189
     H    -1.3105490271    1.7523104707    6.6163732386
