31
-1.0110104291336455e+03 frame 70   xyz file generated by TeraChem
    Ni     0.0928483674   -0.1075474349   -0.0841806207
     O    -1.1763081355   -0.5622808529   -1.4429753474
     C    -1.8084562294   -1.6776071279   -1.1191083791
     C    -1.4523495571   -2.2771719718    0.1459996657
     C    -2.0926863802   -3.4576795799    0.5455856652
     C    -3.0769062877   -4.0789383933   -0.2602337739
     C    -3.4106331389   -3.4928462137   -1.4801053645
     C    -2.7839987503   -2.3021573377   -1.9074547659
     O    -0.5275743638   -1.6512231600    0.8535439297
     H    -1.8108797102   -3.8942072882    1.5056058128
     H    -4.1676130404   -3.9608261271   -2.1142624171
     H    -3.0491384487   -1.8474486293   -2.8625104466
     C    -3.7493102777   -5.3524970044    0.2027267119
     H    -4.3068418768   -5.2222323898    1.1461621535
     H    -3.0307794536   -6.1691055483    0.3877362345
     H    -4.4655846768   -5.7174989513   -0.5468439130
     O     1.3617648224    0.3476550984    1.2748446192
     C     1.9936035623    1.4631524516    0.9510556535
     C     1.6377982296    2.0624059999   -0.3143101217
     C     2.2780550925    3.2429499532   -0.7139167360
     C     3.2617483010    3.8646693451    0.0922085206
     C     3.5950876929    3.2789513481    1.3123577397
     C     2.9685666933    2.0882020368    1.7397222201
     O     0.7134646897    1.4361029130   -1.0220879912
     H     1.9965835248    3.6791861627   -1.6741684040
     H     4.3515795858    3.7473365833    1.9467990804
     H     3.2334747905    1.6337373860    2.6949599071
     C     3.9339496224    5.1383389281   -0.3707237159
     H     3.2152849441    5.9547826486   -0.5559590083
     H     4.4917173687    5.0081177333   -1.3140265813
     H     4.6499894167    5.5035731653    0.3789626855
