16
-8.2804803986277511e+02 frame 30   xyz file generated by TeraChem
    Cr     0.2122574918    0.0706214777   -0.2374389988
     C     3.2363820842   -0.1684571890   -0.8891298621
     O     2.0344057675   -0.1977949325   -0.5456963953
     H     3.7227996456   -1.1032751556   -1.2019362923
     H     3.7884963859    0.7815685701   -0.8656023622
     C    -2.0102022122   -1.6843191321   -1.4848018425
     O    -1.2729121802   -0.9372164705   -0.8099769700
     H    -3.0733810782   -1.7598431671   -1.2151634079
     H    -1.6018386283   -2.2571503972   -2.3292246604
     C    -1.1231320108    2.8406230503   -0.2617245960
     O    -0.5482799778    1.7631940532   -0.5229600263
     H    -1.4910265293    3.0589887597    0.7503537379
     H    -1.2498233084    3.5664822849   -1.0785839980
     S     0.4387609745   -0.3552056881    2.1657333956
     H     1.1246219715   -1.5273810488    2.1818103711
     H    -0.7581703505   -0.9092883330    2.4884054845
