29
-8.5980887768558864e+02 frame 65   xyz file generated by TeraChem
    Ni     0.1633341729   -0.1898759051   -0.2506370426
     O     0.4077626960   -1.8427365660   -1.1030919625
     C    -0.3109311643   -2.8872524910   -0.9480587039
     C     0.1387432034   -4.0865972201   -1.7525477139
     C    -1.4368736765   -2.9775887135   -0.1181608989
     C    -1.9025013523   -1.8962366744    0.6423290372
     O    -1.3693838781   -0.7359185028    0.6750669854
     C    -3.1287262663   -2.0518006548    1.5139178720
     H     1.1669282812   -4.3451046205   -1.4757525475
     H     0.1475360950   -3.8280966858   -2.8172006936
     H    -0.5049720351   -4.9558765138   -1.5979486501
     H    -3.5623941867   -3.0522750382    1.4452024219
     H    -3.8805667217   -1.3108597354    1.2205889790
     H    -2.8623391152   -1.8445867267    2.5564111566
     H    -1.9709200399   -3.9183104511   -0.0657974964
     O     1.6963485186    0.3561107066   -1.1759356010
     C     2.2290130242    1.5166350245   -1.1437203942
     C     3.4556146434    1.6720867871   -2.0148062913
     C     1.7627745429    2.5982486630   -0.3839575881
     C     0.6368355835    2.5078412399    0.4459266089
     O    -0.0815048925    1.4631237582    0.6012978475
     C     0.1867766698    3.7072729827    1.2500649955
     H     4.2085266285    0.9332317315   -1.7189207782
     H     3.8875387791    2.6734635963   -1.9483006231
     H     3.1904249288    1.4616522792   -3.0569450210
     H     0.8295791018    4.5770341981    1.0943707352
     H     0.1792504255    3.4494083986    2.3148885240
     H    -0.8419014319    3.9646709051    0.9740989527
     H     2.2964720910    3.5391461212   -0.4367208736
