11
-3.7507828313447737e+02 frame 40   xyz file generated by TeraChem
    Fe     0.2244090774   -0.2096015107   -0.1951627225
     C     3.2112298536    0.3196542115   -0.0454499761
     O     2.1768410481    0.0907848906   -0.6665164302
     H     3.2189174062    0.4253807232    1.0480967958
     H     4.1544108304    0.4227536718   -0.5964687515
     C    -1.2689479890   -2.1288164600   -2.0948633176
     O    -0.2930926903   -1.5890909796   -1.5820248696
     H    -2.2928998220   -1.8854779633   -1.7806810158
     H    -1.1166997842   -2.8738236024   -2.8858425559
     I    -1.0757253533    1.9396980959   -0.5205293358
     I     0.0068602918   -1.2014638429    2.1316067738
