37
-1.0424636217107236e+03 frame 71   xyz file generated by TeraChem
    Fe    -0.0724150145    0.0972529979    0.0684169716
     O     1.9717581761   -0.2392021051    0.0798406934
     C     2.7884989632   -0.5210337488    1.2032052547
     C     4.0556942685   -0.7726244217    0.7877612271
     C     4.0791554957   -0.6542466157   -0.6404597713
     C     2.8254633805   -0.3363469696   -1.0519538680
     H     2.2987590669   -0.4918024532    2.1654253867
     H     4.8930492588   -1.0151380355    1.4315445609
     H     2.3692111591   -0.1284791310   -2.0081155059
     H     4.9387703323   -0.7879398254   -1.2867245570
     O    -0.4033336665   -1.2009467723   -1.5320242802
     C     0.0966407902   -2.5257285238   -1.6212217596
     C    -0.3063345198   -3.0799069949   -2.7944317090
     C    -1.0858185036   -2.1027778337   -3.4935361918
     C    -1.1342496003   -0.9842445336   -2.7238824087
     H     0.6810586090   -2.8723486392   -0.7815224431
     H    -0.0739348326   -4.0838763581   -3.1297783892
     H    -1.5886647903   -0.0100306444   -2.8307878023
     H    -1.5575936528   -2.2212805546   -4.4619891695
     O    -0.5528892387    2.0728698035   -0.2225502409
     C    -1.8198583494    2.7133444817   -0.2882225214
     C    -1.6389187443    4.0529611226   -0.3882764806
     C    -0.2273372855    4.3069896775   -0.3879454588
     C     0.4094231485    3.1133590062   -0.2848227028
     H    -2.6799087172    2.0612942305   -0.2460771631
     H    -2.4291294349    4.7912338129   -0.4579069225
     H     1.4460817217    2.8097519590   -0.2571581548
     H     0.2556465644    5.2743220640   -0.4606049331
     O    -1.1359318563   -0.4459200149    1.7434307493
     C    -1.1025228183    0.1383538579    3.0379671437
     C    -1.9966234038   -0.4925342302    3.8376590359
     C    -2.6360544855   -1.5139352188    3.0594525362
     C    -2.1134641922   -1.4715082306    1.8083543116
     H    -0.4130733930    0.9595258797    3.1704140817
     H    -2.1863450356   -0.2582011339    4.8784921677
     H    -2.2765684891   -2.0336940383    0.9006734165
     H    -3.4002390530   -2.2029508257    3.3994470311
