46
-1.1883803137711309e+03 frame 42   xyz file generated by TeraChem
    Mn    -0.0410205274   -0.0344402705    0.0384078990
     C     4.6116866315    0.7879834994   -0.2214372871
     C     3.8340948192    0.6320272157   -1.3891219561
     C     2.4833011589    0.3659981431   -1.2688398850
     N     1.8715381012    0.2541986611   -0.0524587164
     C     2.6196063029    0.4090326315    1.0774760323
     C     3.9780251470    0.6696407801    1.0305767463
     C     6.0080379196    1.0570148663   -0.3105929329
     H     4.2851193978    0.7142739550   -2.3727711375
     H     1.8665140285    0.2349102555   -2.1532706111
     H     2.1083127363    0.3080123363    2.0277146573
     H     4.5398360054    0.7781482193    1.9525962969
     N     7.1487987717    1.2763888207   -0.3861096404
     C    -1.0045825548   -3.3025640179   -3.2241999534
     C     0.1959047507   -3.3690503739   -2.5040958717
     C     0.4769459988   -2.3885278103   -1.5658183685
     N    -0.3900386760   -1.3625452615   -1.3248278485
     C    -1.5604968517   -1.3007647426   -2.0208641942
     C    -1.8922549676   -2.2507583344   -2.9753040628
     H    -1.2421726949   -4.0588981029   -3.9672817590
     H     0.9089751236   -4.1706668864   -2.6695269843
     H     1.3960149086   -2.4053907362   -0.9887225117
     H    -2.2197831642   -0.4676472366   -1.8019922225
     H    -2.8306997384   -2.1620979228   -3.5133268517
     C    -2.4476991003    3.9307278721   -0.7884836417
     C    -1.1210220598    3.7982658330   -1.2115932654
     C    -0.4361158200    2.6258035995   -0.9285440594
     N    -1.0219733624    1.6012091660   -0.2454826220
     C    -2.3146179106    1.7323323479    0.1729602213
     C    -3.0490780783    2.8782435443   -0.0857129247
     H    -3.0043557052    4.8398931525   -0.9988019824
     H    -0.6176234819    4.5936851773   -1.7519186610
     H     0.5968800609    2.4925207983   -1.2310826650
     H    -2.7430559194    0.8989144146    0.7203285578
     H    -4.0749581807    2.9449654892    0.2626148119
     C    -1.2479334226   -1.5897350617    4.3112633365
     C    -1.0483408546   -0.2189332797    4.0985733042
     C    -0.7143575448    0.2265818594    2.8295626000
     N    -0.5697908896   -0.6403079111    1.7862491841
     C    -0.7623388705   -1.9744416832    1.9902888109
     C    -1.1037028927   -2.4752378904    3.2385383552
     H    -1.5136647672   -1.9593560830    5.2978893962
     H    -1.1538734819    0.4988432337    4.9060408177
     H    -0.5579648865    1.2813377670    2.6248149018
     H    -0.6481897207   -2.6300316242    1.1332853886
     H    -1.2556181746   -3.5428367060    3.3616395538
