13
-5.5979368929351233e+02 frame 53   xyz file generated by TeraChem
    Co    -0.2978303921    0.7583052949    0.7869555785
     C     1.2780833520    1.5391278126    1.5691874336
     N     2.2596862467    1.9865176524    2.0170247883
     C    -1.7784598807   -0.1273447540   -0.0997603953
     N    -2.6030691707   -0.7140773696   -0.6855506234
     C    -0.5041199208    2.0987723798   -1.7292685642
     O    -0.3149092912    2.2123850264   -0.5250607905
     H    -0.4741590050    3.0004851432   -2.3545009862
     H    -0.7121110507    1.1282358903   -2.1968905134
     C    -0.5030357894   -1.7582969188    2.1253820061
     O    -0.3167166098   -0.5537393453    2.2402977634
     H    -0.7073637752   -2.2257948470    1.1540120580
     H    -0.4745248978   -2.3839716483    3.0268050405
