27
-1.7052658104214443e+03 frame 59   xyz file generated by TeraChem
    Mn     0.0410262234    0.2464988326    0.3459540677
     C     4.4486594041   -1.7883749185    0.3021143913
     C     4.0493710384   -0.8379522220   -0.6514949928
     C     2.7532139600   -0.3518360111   -0.6014146640
     N     1.8611282585   -0.7463184929    0.3378789851
     C     2.2496604353   -1.6503485790    1.2654101645
     C     3.5237183757   -2.1995495406    1.2735124451
     C     5.7757054765   -2.3263529464    0.2812404906
     H     4.7353779053   -0.4879330279   -1.4142381481
     H     2.4133196276    0.3785853306   -1.3289329600
     H     1.5195049892   -1.9172454433    2.0199934067
     H     3.7951587296   -2.9261839853    2.0308101037
     N     6.8513684780   -2.7657715451    0.2592118093
     C    -1.2300272688   -1.6183121350   -3.9380716291
     C    -0.9483328826   -2.4172333830   -2.8177617552
     C    -0.5330076300   -1.7999834397   -1.6490705332
     N    -0.4021267573   -0.4560542999   -1.5422871073
     C    -0.6895393803    0.3145566446   -2.6153312928
     C    -1.0927345568   -0.2264166763   -3.8273027904
     C    -1.6487597930   -2.2161382838   -5.1701647587
     H    -1.0504436322   -3.4955666981   -2.8594152526
     H    -0.2999090926   -2.3935088203   -0.7698515447
     H    -0.6036485041    1.3848366602   -2.4737606445
     H    -1.3081718993    0.4252295071   -4.6664246334
     N    -1.9820038891   -2.7040484186   -6.1709524638
    Cl    -0.9346289779    2.1707150215    0.0828224664
    Cl    -0.3259698480   -0.0620806628    2.4670504834
