37
-8.1075454719149047e+02 frame 43   xyz file generated by TeraChem
    Fe     0.1144377759    0.3194184885    0.0506156416
     C     3.0296590411   -0.8529216994   -0.0312297469
     N     2.1524464388    0.3784441904   -0.0994408811
     H     2.3569067877    0.8453962198   -0.9953522482
     H     2.4955225260    1.0552093741    0.5955112653
     H     2.8276954614   -1.4908156711   -0.8934073984
     H     2.8353241220   -1.3946524797    0.8961804869
     H     4.0823388788   -0.5574182074   -0.0591595449
     C    -1.5356113627   -1.8547736032   -1.1989820368
     N    -0.1398701612   -1.3444860628   -0.9381833880
     H     0.3486721010   -1.2537418070   -1.8398399390
     H     0.3804072693   -2.0725360676   -0.4302630942
     H    -2.1306064515   -1.0757508300   -1.6764841682
     H    -1.9889885944   -2.1708596974   -0.2599113022
     H    -1.4694413278   -2.7188163050   -1.8692923735
     C    -2.6111112022    3.8633471714   -1.2979760817
     C    -2.1012852417    2.9338600230   -2.2166758952
     C    -1.4059292209    1.8348692601   -1.7391038198
     N    -1.1936593675    1.6408378414   -0.4034506284
     C    -1.6914671272    2.5442749207    0.4922911377
     C    -2.3972845135    3.6619349497    0.0713442260
     H    -3.1691737883    4.7287215847   -1.6466652680
     H    -2.2502234526    3.0517323727   -3.2858114251
     H    -1.0130113627    1.0870958236   -2.4243295870
     H    -1.5052714331    2.3589789228    1.5437787586
     H    -2.7728710117    4.3629919562    0.8107651861
     C    -1.1871359394   -0.9168295890    4.3557008179
     C    -2.1494956569   -0.8229430892    3.3414797059
     C    -1.7587661358   -0.4519601935    2.0627303966
     N    -0.4540713190   -0.1798371975    1.7814391816
     C     0.4899223686   -0.2710107276    2.7596900077
     C     0.1492711504   -0.6318914631    4.0563140623
     H    -1.4752298779   -1.2084878290    5.3626092488
     H    -3.1974186010   -1.0341940156    3.5337723709
     H    -2.4799327447   -0.3604619476    1.2580010667
     H     1.5187791336   -0.0507635051    2.4974711658
     H     0.9276510305   -0.6887229604    4.8116198235
