17
-4.0646741580647989e+02 frame 32   xyz file generated by TeraChem
    Fe     0.0074303778   -0.2132095697    0.1560004060
     N     1.9445548102    0.1031854826    0.0073943767
     H     2.2670448202    0.8706627134    0.6223356995
     H     2.4754996899   -0.7359115099    0.3047694143
     H     2.2903720975    0.3316653649   -0.9387061782
     N    -0.3709650188   -1.2880485195   -1.4467248630
     H     0.0779620402   -2.2206654899   -1.3935204697
     H    -1.3849547318   -1.4754639084   -1.5462772141
     H    -0.0744665215   -0.8869919118   -2.3517028176
     N    -0.6841068183    1.5294395769   -0.3653853504
     H    -0.2574785041    1.9302491373   -1.2166196367
     H    -1.7030336448    1.4911128603   -0.5424832222
     H    -0.5486743605    2.2307923302    0.3833814011
     C    -1.3282427782   -0.6755607143    2.9335605098
     O    -0.8280474985   -0.4379203999    1.8149287111
     H    -0.8243743368   -0.3136053634    3.8441875797
     H    -2.2713531259   -1.2420891392    2.9966421051
