37
-1.0690013844272810e+03 frame 117   xyz file generated by TeraChem
    Fe     0.1886923296    0.0944098028    0.0901904876
     C     2.2810651395    1.2178485600   -1.9330894635
     N     1.4948973802    0.8587004790   -1.1588979350
     C     3.2654601011    1.6689345157   -2.9007809261
     H     4.0417325748    2.2554002651   -2.3946142339
     H     2.7819580180    2.2929055470   -3.6616898010
     H     3.7307346343    0.8045905233   -3.3887416702
     C     1.7106583040   -2.6178273257   -0.1664200258
     N     1.0778171060   -1.6501752004   -0.0663271553
     C     2.5002715197   -3.8298388124   -0.2940949068
     H     3.5650060194   -3.5889947919   -0.1892684574
     H     2.3304521259   -4.2811426407   -1.2791631728
     H     2.2176045835   -4.5469546167    0.4851376897
     C    -1.7430787095    4.4932151328    0.3667529891
     C    -0.5337852983    4.1944096867    1.0465134399
     C    -0.0267337768    2.9037337750    0.9578189625
     N    -0.6503716866    1.9247994557    0.2582864964
     C    -1.8111921097    2.2094579093   -0.3899624076
     C    -2.3875607385    3.4695562262   -0.3699105276
     C    -2.2905733639    5.7975732059    0.4225787769
     H    -0.0064613614    4.9556875098    1.6131492858
     H     0.9125798122    2.6499197854    1.4396028930
     H    -2.2764833280    1.4044695906   -0.9499581458
     H    -3.3075835748    3.6634079996   -0.9122436526
     N    -2.7449771607    6.8825087263    0.4708200305
     C    -3.1067083309   -1.9366522721    2.9531127980
     C    -2.3168935357   -0.8622701765    3.4274390768
     C    -1.3991643156   -0.2902619454    2.5638266543
     N    -1.2102595859   -0.7341337434    1.2901998496
     C    -1.9567125940   -1.7652659540    0.8345645541
     C    -2.9204380112   -2.3911403236    1.6203114879
     C    -4.0682495696   -2.5549508269    3.7877390127
     H    -2.4227426105   -0.4949176746    4.4432122126
     H    -0.7805650994    0.5378637062    2.8922501443
     H    -1.7680171866   -2.1072823248   -0.1776165165
     H    -3.5057621407   -3.2145314797    1.2225090593
     N    -4.8702268464   -3.0695005933    4.4792983799
