14
-7.4227074332023471e+02 frame 23   xyz file generated by TeraChem
    Fe    -0.0824664503   -0.0967150196   -0.9179491650
     O     1.7994072026   -0.3486926244   -0.7164404322
     N     2.7849547150   -0.3540664270    1.5118605192
     C     2.3087329323   -0.3508802650    0.4321683319
     O    -0.2394656089   -1.8364914669   -1.7363491182
     N    -2.4717849791   -2.5757320492   -2.3966210181
     C    -1.4011860817   -2.2082011349   -2.0673943945
     O    -0.2960601227    1.8784854993   -0.7225491008
     N    -0.6617648000    2.6790525947    1.5462069073
     C    -0.4782535714    2.3291141285    0.4304292560
     C    -0.5514338829    0.0547602688    1.8527131155
     O    -0.9411622507   -0.3610266933    0.7516884250
     H     0.4962232848    0.3104944185    2.0386387899
     H    -1.2613841421    0.0587180416    2.6861921521
