9
-5.7602794125998355e+02 frame 45   xyz file generated by TeraChem
    Fe    -0.0019711115   -0.0040618456   -0.0119763657
     C     2.1576018837    0.3475578471    0.3387061088
     O     3.2540709793    0.5000014417    0.5221401308
     C    -0.2801739175   -1.3363362182   -1.7567975723
     O    -0.4058279848   -1.9966777887   -2.6553117727
     C    -0.9775520673    1.9539329516   -0.3538087013
     O    -1.4892367476    2.9374300688   -0.5276153654
     C    -0.9048946734   -0.9693397661    1.7627901965
     O    -1.3520901898   -1.4325468013    2.6819068549
