25
-5.4991297063469574e+02 frame 57   xyz file generated by TeraChem
    Ni     0.1596601076   -0.1537553934   -0.1375853071
     N     0.2589640051   -2.1153545497   -0.2606955710
     N    -1.2142870727   -0.4653016732    1.2406812459
     C    -1.6850723972   -1.8931208687    1.1677496034
     C    -0.4581182232   -2.7448769066    0.9046239907
     H    -0.7199940926   -3.7843256100    0.6873812109
     H     0.2262607412   -2.7349862877    1.7580319004
     H    -2.4019323876   -1.9618612367    0.3440162266
     H    -2.1964910950   -2.1835718443    2.0901944117
     H    -0.1913167296   -2.4114321351   -1.1335667924
     H     1.2155491504   -2.4764433078   -0.3136413616
     H    -0.7980547649   -0.2935216305    2.1623510247
     H    -2.0179291081    0.1661370763    1.1829244312
     N     1.5505610013    0.1571702533   -1.4995912788
     N     0.0420823152    1.8082464797   -0.0382608846
     C     1.2176837369    2.4351844991   -0.7401533762
     C     1.4897208619    1.5866003596   -1.9671294660
     H     2.4193947559    1.8737810231   -2.4671697761
     H     0.6744779942    1.6619842173   -2.6929719766
     H     2.0637435749    2.4185085518   -0.0468581024
     H     1.0080604219    3.4767041745   -1.0000477340
     H     2.4676624747   -0.0206923057   -1.0758282392
     H     1.4969139414   -0.4716168503   -2.3056135986
     H    -0.8244684861    2.1078290848   -0.4983611633
     H    -0.0209918152    2.1681654041    0.9181670539
