13
-1.4416202157294422e+03 frame 101   xyz file generated by TeraChem
    Fe     0.0519349171   -0.2013826822    0.1349916353
     N     1.8612848019    0.1836209675    0.3173441053
     C     3.0239774268    0.3989944585    0.4555649119
     S     4.5926312693    0.6898344502    0.6304982139
     N    -1.1230914889   -1.3110614500   -0.9248976005
     C    -2.1212512331   -1.1728016420   -1.5466838232
     S    -3.4161297845   -0.7661551079   -2.4410170692
     O    -0.4767218777    1.4088970270   -0.8443751574
     N    -2.2078290769    1.6193828831   -2.5380430790
     C    -1.3658162707    1.5130509537   -1.7031368714
     O    -0.2127144055   -1.0451385365    1.7524959619
     N     1.0313514901   -0.6008485575    3.8072773903
     C     0.4483484913   -0.7974204842    2.8053274232
