9
-5.9681135409858803e+02 frame 38   xyz file generated by TeraChem
    Co    -0.0015361718    0.0081376864   -0.0206469278
     C     2.1643305453   -0.3269841773    0.2307378839
     O     3.2683995474   -0.4931134211    0.3276606757
     C    -1.0838834891   -1.2572235376   -1.4588632512
     O    -1.6227322241   -1.9237037634   -2.1810556503
     C    -0.6716551326    1.9095065057   -0.8998376057
     O    -1.0010476711    2.8900206892   -1.3312911920
     C    -0.4072547807   -0.3231821757    2.1248472898
     O    -0.6447547757   -0.4835111680    3.2083998500
