27
-8.2715438035050124e+02 frame 75   xyz file generated by TeraChem
    Fe    -0.2560183205   -0.2132435593    0.0953020371
     C     4.4703396361    0.8567745249   -0.2863247057
     C     3.6136439623    0.8833184612   -1.3991904503
     C     2.2804240406    0.5498985505   -1.2210293250
     N     1.7772539633    0.1923010884   -0.0169017207
     C     2.6011022832    0.1689452727    1.0544914980
     C     3.9464305280    0.4941454610    0.9637028102
     C     5.8553504693    1.1940486531   -0.4274305434
     H     3.9812603794    1.1642294865   -2.3794495758
     H     1.5888971817    0.5755763127   -2.0578101923
     H     2.1525184203   -0.1156628115    1.9990890393
     H     4.5747224135    0.4665017643    1.8465704285
     N     6.9797675855    1.4632740931   -0.5451973354
     C    -1.0677300406   -3.8167806185   -3.0701622998
     C    -0.0499944358   -3.9017621066   -2.1058169952
     C     0.1467574025   -2.8285088941   -1.2522864918
     N    -0.5978673424   -1.7013449550   -1.3182419735
     C    -1.5777658373   -1.6187557594   -2.2452826617
     C    -1.8445770992   -2.6500664646   -3.1343929176
     C    -1.3067191101   -4.9032203269   -3.9726234215
     H     0.5675317668   -4.7886146165   -2.0219897440
     H     0.9128908273   -2.8619885973   -0.4841801996
     H    -2.1549669268   -0.7010403175   -2.2647729701
     H    -2.6406418888   -2.5490216613   -3.8632048524
     N    -1.4963533544   -5.7837150405   -4.7070893272
     I    -1.5458776119    1.9149295424   -0.4802462162
     I    -0.9036869370   -1.1279668235    2.3885162829
