12
-1.6354775514696514e+03 frame 31   xyz file generated by TeraChem
    Cr    -0.1064733185    0.0221572351   -0.0812357168
     N     1.7911302247    0.2851429091    0.2039936582
     C     2.9432860834    0.4387116247    0.4592540683
     S     4.5113194654    0.6443419041    0.8056400206
     N    -0.5828031914   -1.4034286975   -1.2644199211
     C    -0.9086119826   -2.3468692951   -1.9145169484
     S    -1.3465929374   -3.6241872254   -2.7987836783
     N    -0.9117266995    1.5569746331   -0.8771670768
     C    -1.4258147727    2.5465367968   -1.2958789288
     S    -2.1228606548    3.8857509573   -1.8657812138
     O    -0.4462129387   -0.2570826600    1.6496693395
     H     0.3864177007   -0.2654083280    2.1557045664
