8
-1.5607444416767144e+03 frame 34   xyz file generated by TeraChem
    Fe    -0.0479627311    0.0753991870    0.0754216124
     N     2.0605836093   -0.1030261391   -0.1031847049
     H     2.5382598876    0.5355548259    0.5342775232
     H     2.3592832576   -1.0553192174    0.1125969664
     H     2.3590960433    0.1111864812   -1.0558901930
    Cl    -0.7065870047   -1.4123409530   -1.4118848206
    Cl    -0.3795607114    2.2099367326   -0.3612346642
    Cl    -0.3796251472   -0.3614154859    2.2098830998
