101
-2.0128081942619253e+03 frame 102   xyz file generated by TeraChem
    Cr    -0.0670103645    0.0874554297   -0.1060307103
     C     1.7270317465    0.4689326652   -1.0826282733
     N     2.7627860040    0.6654796755   -1.5857484164
     C     3.9908491977    0.8864260218   -2.1733549714
     C     4.5115192699    2.1907154433   -2.2299206103
     C     5.7496600517    2.3903044118   -2.8181623751
     C     6.5028357676    1.3254865930   -3.3585436197
     C     7.8674064539    1.6044153668   -4.0019428175
     C     7.6642369473    2.5509509184   -5.2119738971
     C     8.7901946360    2.2850152641   -2.9596458189
     C     8.5549070499    0.3182548818   -4.4977504513
     C     5.9481363354    0.0343052248   -3.2830465839
     C     4.7078781270   -0.1966182145   -2.7014591104
     H     3.9481091750    3.0207414849   -1.8165206948
     H     6.1433218238    3.3999893843   -2.8575823798
     H     7.0150500654    2.0950837146   -5.9676212742
     H     8.6313436872    2.7611450690   -5.6807613985
     H     7.2235984769    3.5098207250   -4.9192675389
     H     8.9453512850    1.6416983600   -2.0867913665
     H     8.3865156165    3.2411113121   -2.6113683647
     H     9.7674922361    2.4849676117   -3.4109428722
     H     8.7464045797   -0.3882004913   -3.6819593978
     H     9.5227661492    0.5720784558   -4.9404913681
     H     7.9689125619   -0.1905892676   -5.2715742571
     H     6.4904376760   -0.8127459576   -3.6841626597
     H     4.2949598724   -1.1987744660   -2.6511623173
     C     0.0285882802   -1.9014668197   -0.6957366107
     N     0.0295473992   -3.0053833312   -1.0756176210
     C     0.0011481969   -4.3078842207   -1.5370338465
     C    -1.1562997124   -5.0809286453   -1.3473474979
     C    -1.1800990831   -6.3784949732   -1.8321010975
     C    -0.0796471872   -6.9448922070   -2.5099356443
     C    -0.1681510320   -8.3842559880   -3.0360961718
     C    -0.4091388602   -9.3425656500   -1.8434381652
     C    -1.3532179316   -8.4829807524   -4.0299079006
     C     1.1160125549   -8.8216636774   -3.7665073896
     C     1.0633680202   -6.1421321800   -2.6743003185
     C     1.1167832086   -4.8365857846   -2.1989968092
     H    -2.0158619396   -4.6594604172   -0.8364440983
     H    -2.0793758939   -6.9661784277   -1.6839173156
     H     0.4167393774   -9.2976604982   -1.1251278641
     H    -0.4847389625  -10.3723588747   -2.2080177504
     H    -1.3374203996   -9.1124173744   -1.3102009117
     H    -1.2091301249   -7.8141053463   -4.8853497301
     H    -2.3107056350   -8.2339517457   -3.5608676407
     H    -1.4301414564   -9.5067392626   -4.4109463251
     H     1.3246565457   -8.1933484269   -4.6396672735
     H     0.9969198660   -9.8483628141   -4.1255007785
     H     1.9915842897   -8.8078795425   -3.1074745067
     H     1.9325574079   -6.5364229852   -3.1858900914
     H     2.0062057040   -4.2307133937   -2.3376163310
     C    -0.3262499279    2.1113740392    0.2730100337
     N    -0.4875228079    3.2543109645    0.4472980186
     C    -0.6806440841    4.6096472111    0.6387144353
     C    -1.3569519871    5.0603383919    1.7838620327
     C    -1.5462344716    6.4224621119    1.9549793371
     C    -1.0822633432    7.3669105939    1.0146473204
     C    -1.3293941693    8.8632398605    1.2501554488
     C    -2.8575553379    9.1148095903    1.2989180458
     C    -0.6928141341    9.2780115828    2.6000833638
     C    -0.7250317372    9.7401548257    0.1373080624
     C    -0.4085118287    6.8762532580   -0.1182924203
     C    -0.2024564864    5.5159120054   -0.3168789495
     H    -1.7186331129    4.3487590977    2.5188550954
     H    -2.0692095202    6.7611975291    2.8425487963
     H    -3.3359906833    8.8401582691    0.3522884584
     H    -3.0511128773   10.1776650924    1.4783950794
     H    -3.3440334945    8.5508943259    2.1018015570
     H     0.3893727375    9.1076070507    2.5979239970
     H    -1.1216542046    8.7324160212    3.4469742926
     H    -0.8663996490   10.3448834569    2.7751966003
     H     0.3633442214    9.6292423294    0.0707301488
     H    -0.9312557404   10.7926733069    0.3535239982
     H    -1.1601487277    9.5205571563   -0.8443641170
     H    -0.0370637982    7.5641546800   -0.8676121610
     H     0.3143748034    5.1544531788   -1.1999519675
     C    -1.5812186676   -0.3963023128    1.2342739549
     N    -2.3994638796   -0.6790616211    2.0185074052
     C    -3.3588076035   -1.0214100077    2.9485980884
     C    -3.5899334727   -2.3771370436    3.2388965212
     C    -4.5519068968   -2.7038305470    4.1800501882
     C    -5.3045006681   -1.7183245187    4.8551600723
     C    -6.3563260998   -2.1398988264    5.8891027369
     C    -7.4321706607   -3.0061662250    5.1855730377
     C    -5.6684681509   -2.9711649114    7.0014592579
     C    -7.0532743239   -0.9320820047    6.5439104004
     C    -5.0461559754   -0.3724177941    4.5357784632
     C    -4.0877772864   -0.0136662260    3.5957897279
     H    -3.0170423130   -3.1478117556    2.7337377363
     H    -4.7222909299   -3.7522133886    4.3989423256
     H    -7.9382150018   -2.4433788246    4.3937228036
     H    -8.1863498046   -3.3164581513    5.9160721988
     H    -7.0066640923   -3.9125073298    4.7426015539
     H    -4.8975585707   -2.3861033742    7.5145617645
     H    -5.2027225356   -3.8812868132    6.6101980160
     H    -6.4131779343   -3.2749380036    7.7443057591
     H    -6.3464376681   -0.2914985200    7.0835629487
     H    -7.7876006316   -1.2902210019    7.2715859501
     H    -7.5932222249   -0.3202080814    5.8124396146
     H    -5.6007552677    0.4169391394    5.0276405245
     H    -3.9020508929    1.0291842399    3.3605532229
