29
-6.5593899904162095e+02 frame 91   xyz file generated by TeraChem
    Fe     0.1120516996   -0.6351755131   -0.2067809323
     N     1.8701631886   -1.6907392636   -0.2089179832
     H     2.0269697274   -2.2638839168    0.6243356270
     H     1.9640905231   -2.3340408835   -1.0022934606
     H     2.6825198082   -1.0631768252   -0.2609152079
     N     0.3016063460   -0.3856266866   -2.2238788282
     H     1.2359806184   -0.5795534010   -2.5989427989
     H    -0.3324305265   -0.9913055910   -2.7613634734
     H     0.1022446136    0.5692304119   -2.5425555295
     N    -1.6742639876    0.3767673002   -0.2636458753
     H    -1.8481180623    0.8903780229   -1.1330904451
     H    -2.4641721398   -0.2740950950   -0.1775648185
     H    -1.7970907281    1.0621744112    0.4878780881
     C    -0.1457423351   -0.9630787037    1.7677637518
     N    -0.3296044006   -1.2095624456    2.8912466053
     C    -0.1986909683   -0.9318318848    5.3962175612
     C     0.5665890107    0.2288633924    5.3468437109
     C     0.9411160363    0.8385702443    6.5451396386
     C     0.5443983840    0.2807257391    7.8250536380
     C    -0.2251453210   -0.8858295892    7.8771281134
     C    -0.5956891869   -1.4902864043    6.6877655608
     H     0.8749605699    0.6654412879    4.4031769005
     H     1.5396065689    1.7459343479    6.5353973940
     H    -0.5266090999   -1.3104394877    8.8297925625
     H    -1.1943437193   -2.3987938462    6.7084703251
     H     0.8553874904    0.7846463384    8.7371521354
     C    -0.6845855377   -1.7127474175    4.1944356285
     H    -1.7823153683   -1.7819430857    4.2212626050
     H    -0.3059139078   -2.7444252058    4.2501772857
