9
-1.1091042319667140e+03 frame 35   xyz file generated by TeraChem
    Mn    -0.1476887875   -0.0988318071   -0.1364327415
     N     1.8715773369    0.2257259896    0.1870862715
     C     3.0253441198    0.4133928499    0.3680257700
     S     4.6275137783    0.6726471714    0.6175250032
     N    -0.3680298690   -1.5524246144   -1.5899133068
     C    -0.5046343811   -2.3819902366   -2.4219592831
     S    -0.6919919403   -3.5335913625   -3.5768348135
     I    -1.3406048696    2.3312987452   -1.0561939704
     I    -1.3379046418   -1.0230054435    2.2938429034
