13
-1.6832358012189643e+03 frame 69   xyz file generated by TeraChem
    Cr     0.0000353996    0.0158267001    0.0110786343
     S     2.1780546074    0.5949232989   -1.1881409535
     H     2.4963028978    1.8608872879   -0.8395172623
     H     1.7701537079    0.9085182942   -2.4390738790
     S     0.4394231106   -2.2707884345   -1.0513419003
     H     1.4635794432   -2.7638595464   -0.3184886642
     H    -0.4816076009   -3.1308387969   -0.5659558297
     S    -0.9677545414    2.3353818786    0.4375807046
     H    -0.2025034383    3.2168036190   -0.2420834869
     H    -0.4721594885    2.6579049499    1.6540580575
     S    -1.7896554272   -0.6878784177    1.6968435249
     H    -2.9136683097   -0.7526175817    0.9470738212
     H    -1.6717802351   -2.0237376044    1.8581862932
