31
-1.2136283363011100e+03 frame 103   xyz file generated by TeraChem
    Ni    -0.3751340381   -0.2845622668   -0.0033715122
     C     2.3587125059   -1.6583446217   -0.2603707094
     N     1.3324872701   -1.1340862276   -0.1643008893
     C     3.6495365566   -2.3167782340   -0.3828142947
     H     4.1651053526   -2.3061772484    0.5833083059
     H     4.2627681651   -1.7931042190   -1.1242211875
     H     3.5058020988   -3.3545352429   -0.7028562440
     C    -0.8906385084   -0.7462518048   -3.0284728284
     N    -0.7010452779   -0.5756855779   -1.9006361734
     C    -1.1288308769   -0.9618540286   -4.4469949843
     H    -0.1780343496   -0.9402117903   -4.9900197083
     H    -1.7830912544   -0.1751458596   -4.8373310838
     H    -1.6073890270   -1.9357492058   -4.5968492707
     C    -3.1037659698    1.0945550071    0.2767662705
     N    -2.0793648383    0.5667890613    0.1802335375
     C    -4.3932446286    1.7557160207    0.3988335029
     H    -4.6090828150    2.3186924533   -0.5155111943
     H    -4.3789766470    2.4439556035    1.2506015077
     H    -5.1777705608    1.0068222877    0.5535384712
     C     0.4266251949    0.4195962588    4.5856933927
     C    -0.3291136012   -0.6816563775    4.1331725205
     C    -0.5455008790   -0.8538324250    2.7786688117
     N    -0.0515891201    0.0021723098    1.8561125473
     C     0.6786023999    1.0641261991    2.2706305479
     C     0.9324054244    1.3024092944    3.6062368953
     S     0.7751426775    0.7609313265    6.2638232373
     H    -0.7492331717   -1.4039037602    4.8249632263
     H    -1.1268881170   -1.6939994404    2.4122914433
     H     1.0603955904    1.7300224107    1.5034770485
     H     1.5211522695    2.1705898165    3.8842712138
     H     0.1221706267   -0.2971020529    6.7870983621
