15
-7.1723830161499939e+02 frame 182   xyz file generated by TeraChem
    Ni    -0.8261229053    0.0476708495   -1.2758985522
     C     2.8648897594   -1.1091079457    0.2671426828
     C     4.1484099066   -1.6449016894    0.1685701012
     C     5.2221632232   -0.9008736588    0.6626542426
     N     5.0983283525    0.3066096703    1.2298863457
     C     3.8542780728    0.8072635231    1.3140911297
     C     2.7149923428    0.1483184840    0.8545445917
     H     1.9705213053   -1.6135522352   -0.0843067654
     H     4.3215057118   -2.6193717660   -0.2819544631
     H     6.2378381961   -1.2943749622    0.6002118932
     H     3.7722726711    1.7909873346    1.7770077057
     H     1.7146332892    0.5603410230    0.9324731301
     F    -1.3280484171   -1.1631625387   -2.4825332283
     F    -1.5930557119    1.6307583374   -1.5051696277
     F    -0.0432606804   -0.6744293763    0.1893055191
