52
-1.7053344811728427e+03 frame 133   xyz file generated by TeraChem
    Fe    -0.9490041801   -0.3522461077    0.0852536375
     S     1.3571939068   -0.6370930673    0.5473802052
     C     1.2647613037    0.6048268220    1.6824693202
     N     1.1396511905    1.4696297050    2.4670344163
     C    -1.6678761355   -1.6845969464   -1.3704340029
     N    -1.9687949078   -2.4604498418   -2.1793221693
     C    -3.8373196647   -3.5678536618   -3.3447199511
     C    -4.5400414324   -4.5122612320   -2.5879788078
     C    -5.9278041903   -4.6567604806   -2.7496475925
     C    -6.6131912275   -3.8596304561   -3.6668727029
     C    -5.9146943327   -2.9189014877   -4.4256578643
     C    -4.5267712537   -2.7725104920   -4.2655309769
     H    -4.0125216936   -5.1509578229   -1.8839436353
     H    -6.4606551207   -5.4006154056   -2.1656515087
     H    -6.4380291945   -2.3044777466   -5.1515315180
     H    -3.9897494098   -2.0490929178   -4.8738337942
     H    -7.6839671189   -3.9782529583   -3.7984550280
     C    -2.3357646000   -3.4306838379   -3.1907147474
     H    -1.8592508286   -3.0983000435   -4.1182727373
     H    -1.8685157337   -4.3738490128   -2.8903521891
     C    -1.1833980856    1.7049643093   -0.2624410369
     N    -1.1633418528    2.8633308222   -0.3395571019
     C     0.3886682767    4.7594713012   -0.3193731950
     C     1.1748513559    4.5096974645    0.8259212290
     C     2.5075436275    4.9573510253    0.8858362131
     C     3.0533529679    5.6654927787   -0.1785742016
     C     2.2709785874    5.9207764277   -1.3144758734
     C     0.9383607738    5.4615749511   -1.3846231384
     H     0.7615847266    3.9653799518    1.6704627918
     H     3.0981545308    4.7501918668    1.7722725138
     H     2.6878150022    6.4754746960   -2.1494049998
     H     0.3483819785    5.6730924327   -2.2720613841
     H     4.0770347663    6.0228473608   -0.1349657879
     C    -1.0579939838    4.3015235244   -0.3708925805
     H    -1.5537792685    4.6416193509   -1.2844489076
     H    -1.6348321577    4.6735985757    0.4833636549
     C    -1.7764675984   -0.6817502992    1.9965425040
     N    -2.0906041533   -0.7792423513    3.1105059737
     C    -1.1363493304   -1.0429540174    5.3507606045
     C    -0.1092063125   -0.0743148165    5.3263531831
     C     1.0404117218   -0.2347547670    6.1203652944
     C     1.1641269680   -1.3432010660    6.9498400665
     C     0.1411493866   -2.3034581697    6.9804965831
     C    -1.0069556435   -2.1538259993    6.1743769724
     H    -0.1932255376    0.8014737211    4.6891195732
     H     1.8221365376    0.5167457503    6.0815387132
     H     0.2285918485   -3.1708550245    7.6274193131
     H    -1.7883502270   -2.9074628193    6.2141782134
     H     2.0434997700   -1.4695554825    7.5729543453
     C    -2.3922705923   -0.8516053693    4.5184402239
     H    -2.9129557069    0.0785355679    4.7737232035
     H    -3.0947815964   -1.6779453215    4.6583834403
