71
-3.0970994097201269e+03 frame 61   xyz file generated by TeraChem
    Mn     0.4170146459   -0.0529575140    0.2771770491
     C     3.2288922535   -2.8429285051    0.9744160751
     C     3.9165068110   -1.8625945801    0.2433163776
     P     3.0221352513   -0.3166829843   -0.2082014794
     C     3.9134127818    0.9989218757    0.7224429240
     C     3.4387308433    1.3226743102    2.0030173544
     C     4.0981397730    2.2811149027    2.7732929452
     C     5.2284545374    2.9279123056    2.2714161677
     C     5.7011796403    2.6146128745    0.9952808375
     C     5.0484802440    1.6540196014    0.2225389085
     C     3.3820286048    0.0145078955   -1.9821014805
     C     3.0230070107    1.2749373867   -2.4958099705
     C     3.1861451436    1.5545965854   -3.8516007837
     C     3.6921792202    0.5805999903   -4.7162669872
     C     4.0289257930   -0.6774412766   -4.2179103269
     C     3.8742386978   -0.9624951818   -2.8592102878
     C     5.2752123879   -2.0593551897   -0.0561509562
     C     5.9227491074   -3.2276294299    0.3418994806
     C     5.2264357206   -4.2070916937    1.0558036646
     C     3.8836829018   -4.0099087584    1.3771456206
     H     2.1935863425   -2.6782798592    1.2611518075
     H     2.5532588057    0.8304541770    2.3983007857
     H     3.7196372718    2.5279092804    3.7611818112
     H     5.7362683213    3.6798816585    2.8694693248
     H     6.5779755576    3.1196341896    0.5984746622
     H     5.4148694112    1.4269659799   -0.7743709322
     H     2.6060153597    2.0315013332   -1.8364278582
     H     2.9104855865    2.5342686835   -4.2322905020
     H     3.8163354153    0.8006522363   -5.7732357083
     H     4.4142253701   -1.4442645046   -4.8846607891
     H     4.1343203038   -1.9479302893   -2.4884485248
     H     5.8301045557   -1.2984143605   -0.5972785527
     H     6.9731357338   -3.3704289904    0.1023506669
     H     5.7348608345   -5.1148025996    1.3699042726
     H     3.3428653066   -4.7572092112    1.9514116305
     C    -1.6385308534    0.7709198401   -3.0421519149
     C    -2.0518043337   -0.5294541408   -2.7144692822
     P    -1.0797165740   -1.4796660220   -1.4725579685
     C    -2.3081246978   -2.5781676073   -0.6518973047
     C    -2.9222161459   -2.1196644123    0.5237449063
     C    -3.8881937511   -2.8972968620    1.1625973761
     C    -4.2426927349   -4.1426404198    0.6420770874
     C    -3.6277185177   -4.6116516662   -0.5207416079
     C    -2.6641521245   -3.8352896524   -1.1657273087
     C    -0.0338335436   -2.6338275419   -2.4619161045
     C     0.7962557770   -3.5285676945   -1.7639796672
     C     1.6419022669   -4.3957448815   -2.4535397077
     C     1.6775414914   -4.3757273660   -3.8502664616
     C     0.8630991963   -3.4858065210   -4.5504588216
     C     0.0104794151   -2.6186368937   -3.8625641624
     C    -3.1842290497   -1.0701974315   -3.3460794638
     C    -3.8795324239   -0.3275962731   -4.2993784080
     C    -3.4544596745    0.9613985687   -4.6310837738
     C    -2.3368944029    1.5083885528   -4.0007556750
     H    -0.7953928236    1.2224110911   -2.5282431759
     H    -2.6305989916   -1.1675232598    0.9568045053
     H    -4.3494310422   -2.5335204122    2.0762933907
     H    -4.9895525123   -4.7505901388    1.1456518186
     H    -3.8948634941   -5.5844340013   -0.9251238403
     H    -2.1834198311   -4.2105626870   -2.0641984116
     H     0.7777212944   -3.5531957617   -0.6776373398
     H     2.2763117036   -5.0797962106   -1.8967719565
     H     2.3384115060   -5.0497430128   -4.3886931315
     H     0.8862292023   -3.4638855494   -5.6367434605
     H    -0.6187527997   -1.9315951196   -4.4187757062
     H    -3.5295816239   -2.0661543256   -3.0857276577
     H    -4.7571648633   -0.7536852573   -4.7781805135
     H    -4.0010967892    1.5401863270   -5.3709301087
     H    -2.0120239908    2.5170148506   -4.2402202929
    Cl     0.0682774428    2.2066810854   -0.1061547977
    Cl     0.1155643311   -1.1055276857    2.3282737701
