33
-1.6249925134544321e+03 frame 79   xyz file generated by TeraChem
    Mn    -0.4109846672    0.1577263677    0.0655970495
     C     2.7447911007   -0.5229916484   -0.3925571000
     O     1.6855830289    0.0822833948   -0.2222625908
     H     2.7744616123   -1.6196853340   -0.4521416880
     H     3.6862180261    0.0342257203   -0.4876815222
     C    -1.4089648706   -1.7080239701   -2.4095944286
     O    -1.0694854311   -1.2858143239   -1.3026249960
     H    -1.6913142320   -2.7623274645   -2.5307136017
     H    -1.4359122136   -1.0509852649   -3.2900195123
     C    -1.2780255861    4.9349999235   -0.9012661240
     C     0.0322794020    4.4118275521   -0.8350983808
     C     0.2035673888    3.0665754641   -0.5494156164
     N    -0.8349963771    2.2175244229   -0.3292082352
     C    -2.0938231852    2.7248794910   -0.3839482562
     C    -2.3595838886    4.0546963265   -0.6637492726
     S    -1.6579470834    6.6021857664   -1.2592739169
     H     0.9061680126    5.0321910936   -1.0068614328
     H     1.2022956514    2.6428833003   -0.5013690427
     H    -2.9129745694    2.0351251390   -0.2036506390
     H    -3.3889759668    4.3981148368   -0.7021942348
     H    -0.3897423792    7.0467649324   -1.4158171663
     C    -1.5972180393   -1.8170307012    4.4570560935
     C    -1.1232356170   -0.4885002737    4.3816416236
     C    -0.8110847322    0.0405527489    3.1395514428
     N    -0.9322819156   -0.6590903520    1.9819209838
     C    -1.3926248628   -1.9350314199    2.0560414916
     C    -1.7321481677   -2.5455702965    3.2525327553
     S    -2.0321524145   -2.6282480876    5.9418042749
     H    -0.9940250926    0.1260763224    5.2668256551
     H    -0.4482873637    1.0610229076    3.0627060094
     H    -1.4874587112   -2.4811799502    1.1226905569
     H    -2.0910024769   -3.5704141528    3.2475671273
     H    -1.7583067223   -1.6121496130    6.7924061273
