25
-6.4267306194979801e+02 frame 58   xyz file generated by TeraChem
    Fe    -0.1927996578   -0.5825218452    0.4585796025
     C     4.4531763485    0.2449747383   -0.2589104559
     C     3.5004379474    0.7150284604   -1.1638826328
     C     2.1594506107    0.4360508483   -0.9336223514
     N     1.7419924730   -0.2616981030    0.1454109882
     C     2.6656759565   -0.7112660227    1.0243710926
     C     4.0256178894   -0.4852535052    0.8498972793
     H     5.5086136348    0.4457933021   -0.4145529635
     H     3.7855611226    1.2885399069   -2.0391395566
     H     1.3900980350    0.7699016008   -1.6220593932
     H     2.2908470827   -1.2511809344    1.8874266962
     H     4.7288451218   -0.8697867745    1.5805950213
     C    -0.9148569649   -2.7558070691   -3.7262770158
     C     0.0326531937   -3.2414648170   -2.8243194181
     C     0.2306565205   -2.5643352521   -1.6282244124
     N    -0.4735539108   -1.4589977710   -1.2992107736
     C    -1.3947886549   -0.9920932271   -2.1710731147
     C    -1.6349855887   -1.6083664606   -3.3935755437
     H    -1.0897782871   -3.2637231490   -4.6696430957
     H     0.6150093911   -4.1309730243   -3.0384981030
     H     0.9642609233   -2.9046871659   -0.9049176074
     H    -1.9504545557   -0.1112321687   -1.8667968450
     H    -2.3818710785   -1.1948204209   -4.0624947564
     I    -0.4041515150    0.9813223599    2.5878847894
     I    -2.5223105228   -1.3691771665    1.4553195823
