25
-1.1124398113584425e+03 frame 58   xyz file generated by TeraChem
    Fe    -0.3248542867   -0.1845555043   -0.0081387864
     C     2.7089343139    0.2355468135   -0.8203200196
     O     1.6403989978    0.1466772585   -0.2085736851
     H     3.5698539331    0.7203960218   -0.3425200653
     H     2.8200900071   -0.1640579818   -1.8370892909
     C    -1.0336992263   -2.3612301458   -2.2235406880
     O    -0.9887365452   -1.5314070399   -1.3109227638
     H    -1.9983581116   -2.7952112398   -2.5166145294
     H    -0.1228289235   -2.6753184758   -2.7504337297
     C    -1.7020307533    2.5706638817   -0.8561250985
     O    -1.2181232556    1.5673397843   -0.3267708639
     H    -2.1692285467    3.3459376413   -0.2351251729
     H    -1.6714332965    2.7032155240   -1.9459055830
     C    -1.0271287947   -1.0937752714    4.8208049989
     C    -2.0916875678   -1.2800637892    3.9021470323
     C    -1.8535969350   -1.0162984872    2.5591481124
     N    -0.6500304944   -0.5914239866    2.0950733744
     C     0.3671404851   -0.4125259668    2.9683926117
     C     0.2318609645   -0.6487228788    4.3348387596
     S    -1.1506984663   -1.3734597979    6.5317357947
     H    -3.0755451372   -1.6192437556    4.2133094413
     H    -2.6501019952   -1.1498241575    1.8333004058
     H     1.3145522529   -0.0695905768    2.5648581307
     H     1.0794646635   -0.4883620856    4.9960656343
     H    -2.4494170111   -1.7707253716    6.5774714410
