9
-5.4076681163116973e+02 frame 60   xyz file generated by TeraChem
    Ni     0.0001952558   -0.0002741056   -0.0002372997
     C     1.5370661493    0.7988533269    0.7983956192
     N     2.4816941211    1.2908032871    1.2893536109
     C    -1.5372341125   -0.7990525827   -0.7984649923
     N    -2.4825742700   -1.2900017702   -1.2890382780
     C     0.0005379159    1.3481067327   -1.3489345774
     N     0.0013492235    2.1773308683   -2.1782823260
     C    -0.0003980409   -1.3484935566    1.3487481712
     N    -0.0007802375   -2.1772981166    2.1785038361
