20
-7.8679324184588427e+02 frame 61   xyz file generated by TeraChem
    Fe     0.4716482882   -0.0063614158    0.7439334910
     C     2.2647198550   -0.1331298779    0.3111351924
     N     3.3849312555   -0.2397541418    0.0285106675
     C     5.2079755923    0.8217853490   -1.2207510004
     C     4.8580210037    0.8774732110   -2.5750576822
     C     5.2615310697    1.9582156009   -3.3573432248
     C     6.0204581178    2.9860144317   -2.7920209077
     C     6.3735240690    2.9321468173   -1.4430781832
     C     5.9660156477    1.8528280969   -0.6577770767
     H     4.2673143238    0.0782051016   -3.0165223860
     H     4.9861439939    1.9968574010   -4.4071972895
     H     6.9645605926    3.7286712836   -1.0005068067
     H     6.2397170761    1.8129916760    0.3938843867
     H     6.3361481995    3.8265645205   -3.4033776608
     C     4.7628864473   -0.3493548209   -0.3672935691
     H     5.3539367356   -0.4211115733    0.5507374133
     H     4.8584025267   -1.2995687401   -0.9034117607
     F    -0.2123357447   -0.7226684665   -0.6545930839
     F     0.2213179601    1.6853971344    0.4911659267
     F     0.4768135469   -1.2238076133    1.9804594383
