104
-3.2241631288104491e+03 frame 67   xyz file generated by TeraChem
    Mn    -0.2689072170    0.1313647082   -0.3877533985
     C     1.4646208614   -3.1335647536    0.8569936532
     C     2.2692456834   -2.1126957509    1.3805929369
     P     2.1521575668   -0.4214170348    0.6731329797
     C     2.6351981401    0.6739686638    2.0744394422
     C     1.6961649965    0.8936496907    3.0962596285
     C     2.0440597044    1.6453374539    4.2177416211
     C     3.3246204760    2.1921131737    4.3280670045
     C     4.2579162414    1.9879539807    3.3099846522
     C     3.9182426897    1.2317311238    2.1855634045
     C     3.5419555817   -0.2978707237   -0.5321729270
     C     3.6246547851    0.8441189983   -1.3468987485
     C     4.6614786657    0.9854548926   -2.2684175244
     C     5.6207039444   -0.0222090690   -2.4009399290
     C     5.5378873046   -1.1675984151   -1.6075467831
     C     4.5056364370   -1.3072915726   -0.6763006886
     C     3.1644716347   -2.4092661427    2.4219936388
     C     3.2546236500   -3.7092270753    2.9183172223
     C     2.4541162002   -4.7226112104    2.3853877966
     C     1.5591409258   -4.4335871936    1.3547707788
     H     0.7504958381   -2.9217799496    0.0677581447
     H     0.6975378976    0.4727731406    3.0224416792
     H     1.3118054823    1.8046540314    5.0039262534
     H     3.5949764530    2.7731922539    5.2053283875
     H     5.2567073453    2.4077349606    3.3920513863
     H     4.6564969252    1.0703883394    1.4064981519
     H     2.8799097982    1.6308717435   -1.2636937194
     H     4.7113607552    1.8765176421   -2.8872864241
     H     6.4289750558    0.0858366510   -3.1187070464
     H     6.2798762404   -1.9548747194   -1.7057349001
     H     4.4583689201   -2.1987155109   -0.0596668351
     H     3.7838931350   -1.6267954249    2.8487420901
     H     3.9469722303   -3.9292604036    3.7258419998
     H     2.5236744524   -5.7327139676    2.7788267690
     H     0.9241041130   -5.2112470839    0.9414988174
     C    -2.9216917407    0.2180008598   -3.4297172813
     C    -2.6123767228   -1.1218134077   -3.1489586458
     P    -0.9661502422   -1.5151711381   -2.4311023927
     C    -1.0750005883   -3.2954792287   -1.9692556259
     C    -1.7635276980   -3.6454090677   -0.7948057714
     C    -1.9115804351   -4.9870525458   -0.4419179226
     C    -1.3655553328   -5.9898760943   -1.2474896592
     C    -0.6721614750   -5.6471102583   -2.4097271594
     C    -0.5281577979   -4.3070656374   -2.7739620247
     C     0.2021339411   -1.4653709839   -3.8544670046
     C     1.5798780306   -1.5143304737   -3.5845887874
     C     2.5067831063   -1.5034826512   -4.6262950640
     C     2.0675842444   -1.4321598393   -5.9505372575
     C     0.7001442494   -1.3733935525   -6.2275439198
     C    -0.2311835239   -1.3915611792   -5.1871518298
     C    -3.5545437840   -2.1184331109   -3.4452925454
     C    -4.7826027769   -1.7750718368   -4.0130028464
     C    -5.0798089455   -0.4408587721   -4.2943653086
     C    -4.1459273994    0.5558947516   -4.0049607175
     H    -2.2096769799    1.0055185337   -3.2022274618
     H    -2.1803685841   -2.8740526468   -0.1537723706
     H    -2.4514059697   -5.2448529800    0.4646758325
     H    -1.4821808326   -7.0341310675   -0.9715619729
     H    -0.2465093110   -6.4224523168   -3.0403383033
     H     0.0036608720   -4.0558613198   -3.6856287987
     H     1.9364025705   -1.5633619024   -2.5593973824
     H     3.5677283304   -1.5425513982   -4.3987322388
     H     2.7878881680   -1.4229394992   -6.7636887904
     H     0.3542990783   -1.3180585097   -7.2557888758
     H    -1.2912447023   -1.3491816857   -5.4143615229
     H    -3.3345582106   -3.1594621577   -3.2355156188
     H    -5.5060124663   -2.5540928440   -4.2355750710
     H    -6.0373700931   -0.1786005699   -4.7350438926
     H    -4.3710489276    1.5977687288   -4.2105809336
     C    -3.3348804244    2.7059330115   -0.6875659961
     C    -2.2597742002    3.2275074246   -1.4276237583
     P    -0.5432691177    2.7508323388   -0.9560095955
     C     0.5193161443    3.3159540703   -2.3490701468
     C     0.8422454286    2.4021217584   -3.3643506289
     C     1.6066297247    2.8005817323   -4.4622213515
     C     2.0637820149    4.1165545220   -4.5512782909
     C     1.7547596075    5.0320325399   -3.5416694404
     C     0.9867035502    4.6373960756   -2.4459755520
     C    -0.1117305630    3.8695342981    0.4425780834
     C     1.2043699326    3.8643654536    0.9328933830
     C     1.5696255220    4.7056510141    1.9821987218
     C     0.6230231531    5.5521837573    2.5636937021
     C    -0.6879197140    5.5563599592    2.0881977561
     C    -1.0568723864    4.7220120594    1.0309665191
     C    -2.5183893122    4.1205617504   -2.4794733273
     C    -3.8314062458    4.4882910249   -2.7802868679
     C    -4.8945004660    3.9754743426   -2.0338390156
     C    -4.6433879260    3.0847676010   -0.9881761099
     H    -3.1554597682    2.0088924114    0.1256671125
     H     0.5042914316    1.3710473647   -3.3010524144
     H     1.8469389373    2.0801140468   -5.2384679732
     H     2.6603279799    4.4293814463   -5.4035194115
     H     2.1110378358    6.0560898698   -3.6072041323
     H     0.7538916940    5.3538167174   -1.6644337388
     H     1.9557157747    3.2143382574    0.4939879861
     H     2.5907387204    4.6883782974    2.3501755789
     H     0.9070389394    6.2050002186    3.3841078842
     H    -1.4293573548    6.2131415589    2.5339131904
     H    -2.0776431402    4.7453294734    0.6661454068
     H    -1.7018304099    4.5318485610   -3.0633811484
     H    -4.0200996496    5.1831701979   -3.5938223028
     H    -5.9142227295    4.2695066657   -2.2660029137
     H    -5.4647698379    2.6781945724   -0.4053271494
     I    -1.9792728662   -0.3633857629    1.6293990164
