11
-1.2201981013091788e+03 frame 13   xyz file generated by TeraChem
    Cr    -0.1677660818   -0.2652541814   -0.1440984797
     S     2.2465692599   -0.5368269887   -0.6697746616
     C     2.6338081019    1.0558000035   -0.2586192974
     N     2.8651867954    2.1730828445    0.0164548450
     S    -1.7774078323   -1.0886836356   -1.7395505188
     C    -1.2599055057   -2.6940831090   -1.8952785598
     N    -0.9240971545   -3.8097653829   -2.0208592396
     O    -0.4844696995    1.4739353096   -0.4056867537
     H     0.3333843108    2.0046049963   -0.3478102180
     O    -0.0741591567   -1.0452785680    1.4524528621
     H     0.8351603713   -1.3406031618    1.6385057667
