17
-3.3780408856514111e+02 frame 80   xyz file generated by TeraChem
    Fe    -0.3809246470   -0.1561060643    0.0326543222
     C     2.4737157285   -0.7518880354    0.6823320629
     N     1.6189062779    0.0895089483   -0.2113672906
     H     1.8834122415   -0.0692120071   -1.1875841742
     H     1.8362686483    1.0732754255   -0.0405590170
     H     2.2641673203   -1.8078448932    0.4977345046
     H     2.2263601965   -0.5192465038    1.7192330164
     H     3.5357433490   -0.5608662167    0.5065808759
     C    -0.8183761675   -1.5496629237   -2.5481213446
     N    -0.4581957485   -1.8203565554   -1.1184979379
     H     0.4202598238   -2.3443422391   -1.0912502059
     H    -1.1548309158   -2.4568751362   -0.7247451930
     H    -0.0641582143   -0.8983132280   -2.9949754072
     H    -1.7842917822   -1.0435736873   -2.5731979849
     H    -0.8757045783   -2.4795903074   -3.1203303684
     I    -0.7666266486    2.2149765054    1.1626170534
     I    -2.8651233776   -0.4159287791    0.9355789504
