25
-1.5208159458270941e+03 frame 60   xyz file generated by TeraChem
    Mn    -0.4662330328   -0.1939396185    0.1209199414
     C     4.3259942877   -0.6092823236    0.6195319958
     C     3.7383084841    0.1415315852   -0.4004558351
     C     2.3550652841    0.1563271168   -0.5062670999
     N     1.5555826156   -0.5173910373    0.3546259361
     C     2.1252101710   -1.2355521972    1.3484473353
     C     3.5040571407   -1.3116853745    1.5007105183
     H     5.4058811446   -0.6426044295    0.7264356649
     H     4.3363250985    0.7081228974   -1.1057449193
     H     1.8626120824    0.7181858627   -1.2943264582
     H     1.4491940763   -1.7344843861    2.0319336999
     H     3.9170342589   -1.9034409537    2.3103473993
     C    -0.5171281502   -2.4239613993   -4.1515616454
     C    -0.2060012067   -3.0790268824   -2.9585146792
     C    -0.1559358854   -2.3402612662   -1.7848491577
     N    -0.4128812279   -1.0113199036   -1.7573058517
     C    -0.7294353608   -0.3802013254   -2.9096305915
     C    -0.7769485851   -1.0534319123   -4.1237771172
     H    -0.5614759521   -2.9745534116   -5.0862179866
     H    -0.0047045004   -4.1442856130   -2.9311175823
     H     0.0902897319   -2.8167828580   -0.8396545157
     H    -0.9614546657    0.6748984715   -2.8296884733
     H    -1.0305458085   -0.5068661011   -5.0255365072
    Cl    -1.9736212266    1.2955218714   -0.4003148595
    Cl    -0.9025566289   -0.5062871635    2.2349444161
