46
-1.4944182635500647e+03 frame 69   xyz file generated by TeraChem
    Mn    -0.0660653227   -0.0351950584    0.0003822061
     C     4.7569080560    0.8459357242    0.4366244311
     C     3.8811345898    1.8573678188    0.0351732153
     C     2.5200108922    1.5854920214   -0.0199603564
     N     2.0027248894    0.3730166499    0.3044364466
     C     2.8631247846   -0.6042933981    0.6947293535
     C     4.2347627089   -0.4069953999    0.7727916968
     H     5.8262609648    1.0290274892    0.4855209237
     H     4.2447156010    2.8429198531   -0.2361257532
     H     1.8126620413    2.3483134879   -0.3311235722
     H     2.4301687678   -1.5702849493    0.9453914660
     H     4.8803998774   -1.2204204889    1.0871690750
     C    -0.8499704734   -3.4778488509   -3.4349435769
     C     0.4450496661   -3.1553236869   -3.0245698309
     C     0.6190805026   -2.1811719731   -2.0466926925
     N    -0.4230100679   -1.5333869815   -1.4669492238
     C    -1.6779461251   -1.8521835488   -1.8733893927
     C    -1.9297785540   -2.8106891718   -2.8484372188
     H    -1.0160710062   -4.2304234855   -4.2000836228
     H     1.3125629621   -3.6385696165   -3.4618081437
     H     1.6145970307   -1.8925568545   -1.7230166375
     H    -2.4977013496   -1.3148972797   -1.4030355851
     H    -2.9524637152   -3.0303168608   -3.1370264758
     C    -2.2653870297    4.0533560408   -1.6368160476
     C    -1.9398984652    3.0072888321   -2.5028921041
     C    -1.3326529771    1.8665602978   -1.9844693031
     N    -1.0534365034    1.7261578370   -0.6643081069
     C    -1.3762494790    2.7442422783    0.1709898400
     C    -1.9752931185    3.9179826942   -0.2762628402
     H    -2.7348276869    4.9572089620   -2.0139033892
     H    -2.1346169478    3.0743685140   -3.5682621501
     H    -1.0450737105    1.0467854198   -2.6362154823
     H    -1.1526588773    2.6017716005    1.2241401629
     H    -2.2213024249    4.7008357156    0.4337168145
     C    -1.5717533894   -1.3581047228    4.6506292690
     C    -2.3440622510   -1.7262715732    3.5209169401
     C    -1.8969164029   -1.3444832744    2.2649490405
     N    -0.7561723524   -0.6368010915    2.0631172341
     C    -0.0173534755   -0.2894342130    3.1443630682
     C    -0.3770376936   -0.6194975718    4.4442029554
     S    -1.9860127165   -1.7521278214    6.2899689355
     H    -3.2650914996   -2.2936176164    3.6129231487
     H    -2.4667954414   -1.6187926024    1.3833747587
     H     0.8942088592    0.2679052195    2.9540287663
     H     0.2524680561   -0.3117674078    5.2742890784
     H    -3.1351254799   -2.4276934216    6.0422737328
