14
-9.4865656755063640e+02 frame 58   xyz file generated by TeraChem
    Co     0.1136772312    0.0717734018   -0.7843106820
     C     2.8554072285    0.2170347628    0.4147786674
     O     2.1356707854    0.3991927095   -0.5623198237
     H     2.4444216611   -0.1168547506    1.3785283495
     H     3.9360647392    0.3901990401    0.3281135187
     C    -1.1048714257   -2.3170268817   -2.1113744051
     O    -0.4774088041   -1.2713253139   -2.2643346408
     H    -1.4281074548   -2.6489116127   -1.1149826918
     H    -1.3476466325   -2.9286580361   -2.9902274803
     C    -0.7188247251    3.0064051353   -0.6860993622
     O    -0.1958178015    2.0430635932   -1.2350412205
     H    -1.1002619643    2.9478563704    0.3434883215
     H    -0.8113847329    3.9549250645   -1.2312024735
    Cl    -0.7849753082   -0.8355195517    1.0132120111
