9
-1.1284618291502086e+03 frame 121   xyz file generated by TeraChem
    Fe    -0.0121281130   -0.9356527052   -0.1164832960
     S     2.2696894125   -0.6019953225   -0.4198591584
     C     2.8684154984    0.0273654889    1.0316811048
     N     3.3636689183    0.4614560400    2.0044669867
     S    -0.3699005184   -1.9620842231   -2.1675599925
     C    -0.4071708574   -0.8200094559   -3.4201954287
     N    -0.4436196573   -0.1212756478   -4.3623836480
     I    -1.1591726591    1.5237895374    0.0254936496
     I    -0.2149351832   -3.2529177085    1.3233026121
