65
-1.5993072354591152e+03 frame 123   xyz file generated by TeraChem
    Co    -0.1508298661   -0.3177040472    0.2373523973
     C     1.5083260197    0.0291065293   -0.6373006790
     N     2.5031753819    0.2381642978   -1.2002339240
     C     4.8735401770    0.9413512991   -1.0842235714
     C     5.5252073736    0.0200349201   -0.2247194196
     C     6.6329838717    0.4112545419    0.5304108245
     C     7.1074233629    1.7169404570    0.4308986767
     C     6.4651130190    2.6365789960   -0.4259824768
     C     5.3471109341    2.2465319958   -1.1778523992
     H     5.1727851028   -1.0069935737   -0.1674016668
     H     7.1290753474   -0.3055653918    1.1765270152
     H     6.8459942748    3.6495214608   -0.5125229864
     H     4.8759301162    2.9604673970   -1.8475966320
     H     7.9765367063    2.0301227943    1.0007602826
     C     3.7178272181    0.4838938140   -1.9530205532
     H     3.9521522649   -0.4524388645   -2.4714945338
     H     3.4686774350    1.2336558579   -2.7093354482
     C     0.0844725286   -2.1868552732   -0.0731004686
     N     0.2137597339   -3.3271582301   -0.2574526378
     C     0.3482894204   -5.1635135575   -1.9092730506
     C    -0.8426991876   -5.0513613664   -2.6720737448
     C    -0.8817360569   -5.4853909655   -3.9987740753
     C     0.2568961680   -6.0441771313   -4.5743884853
     C     1.4427556936   -6.1630082026   -3.8179488351
     C     1.4857730229   -5.7170651303   -2.4887415303
     H    -1.7408224191   -4.6428999690   -2.2151139172
     H    -1.8008853233   -5.4017180969   -4.5692989155
     H     2.3250088708   -6.6106501629   -4.2649760637
     H     2.4011789234   -5.8306331178   -1.9148489075
     H     0.2358976445   -6.3992629756   -5.5998587697
     C     0.3576474925   -4.7563762952   -0.4482574847
     H     1.2931300915   -5.0456489383    0.0389956790
     H    -0.4665876806   -5.2241639732    0.1023237862
     C    -0.3916949681    1.5548702184    0.5034844587
     N    -0.5311684379    2.7033007021    0.6144915805
     C    -1.4433968227    4.6237672967    1.8920371931
     C    -0.8496939980    4.5924874941    3.1787856717
     C    -1.5312494136    5.0980265355    4.2898323817
     C    -2.8010317902    5.6460301905    4.1286141993
     C    -3.3944993154    5.6823573919    2.8496165067
     C    -2.7147007764    5.1672539619    1.7349988414
     H     0.1535573583    4.1914891859    3.3012518895
     H    -1.0607371801    5.0796234641    5.2674905063
     H    -4.3782685304    6.1237895456    2.7231058032
     H    -3.1766886794    5.2199746593    0.7531132969
     H    -3.3332034021    6.0582584298    4.9801021694
     C    -0.6641400369    4.1451535005    0.6832651875
     H     0.3555307509    4.5463656641    0.6823410708
     H    -1.1478522820    4.4543976921   -0.2480431165
     C    -1.8373780512   -0.6586255912    1.0631233338
     N    -2.8772128433   -0.8723152654    1.5365983996
     C    -4.2778389695   -1.6484540264    3.4469352693
     C    -3.1620158721   -2.0570440723    4.1812880800
     C    -3.3343244922   -2.5684126503    5.4656331694
     C    -4.6286483049   -2.6783531547    6.0245401384
     C    -5.7478384996   -2.2706859677    5.2888119789
     C    -5.5780081730   -1.7578855222    4.0105849324
     H    -2.1637245845   -1.9791106466    3.7624566475
     H    -2.4726389554   -2.8871873605    6.0435270987
     H    -6.7426144942   -2.3532876939    5.7139867241
     H    -6.4447132700   -1.4397105063    3.4365166576
     H    -4.7497781836   -3.0814380871    7.0251299447
     C    -4.2043937003   -1.0997224297    2.0345204997
     H    -4.7395046587   -0.1448592130    1.9637873502
     H    -4.6891094461   -1.7896983928    1.3305060917
