52
-1.7269580675936875e+03 frame 1000   xyz file generated by TeraChem
    Co    -0.8046621802   -0.3175583091    0.9029733046
     S     0.7924321625   -1.9217965119    0.8810531838
     C     0.8975805359   -2.3603204190   -0.7467300792
     N     0.9453676975   -2.6838568783   -1.8694012632
     C    -1.7465767976   -1.0717931969   -0.6189574758
     N    -2.2494821462   -1.5917508080   -1.5271348776
     C    -2.3840398820   -1.7494293485   -3.9853452644
     C    -3.3581919536   -1.1770023696   -4.7918507627
     C    -3.0136899566   -0.6714611111   -6.0661745488
     C    -1.6882162567   -0.7363610269   -6.5264624597
     C    -0.7114083973   -1.3061860662   -5.7205517624
     C    -1.0508694086   -1.8189726132   -4.4515840107
     H    -4.3928138586   -1.1284834039   -4.4633015149
     H    -3.7863300037   -0.2370786344   -6.6933134782
     H     0.3169190765   -1.3724182005   -6.0612486116
     H    -0.2809467146   -2.2730091843   -3.8319030823
     H    -1.4372047784   -0.3499297775   -7.5089784753
     C    -2.7551948930   -2.3558272259   -2.6437040461
     H    -2.3365436529   -3.3619066430   -2.5336869002
     H    -3.8401250446   -2.4206543807   -2.5239631331
     C    -1.8309112698    1.2982460910    0.9555507055
     N    -2.4157195158    2.3017901467    0.9800739402
     C    -2.1582211493    4.7487606628    1.0035851572
     C    -1.5957676258    5.1993906150   -0.2043960187
     C    -0.7308510425    6.3015809447   -0.2168370070
     C    -0.4274502895    6.9596613470    0.9724446662
     C    -0.9890128133    6.5166623088    2.1772936359
     C    -1.8530137721    5.4097083563    2.1919981224
     H    -1.8424654819    4.7006096560   -1.1386487113
     H    -0.3097244468    6.6443241059   -1.1565724098
     H    -0.7655121548    7.0349240091    3.1045846016
     H    -2.2939646597    5.0858078428    3.1311263946
     H     0.2347289438    7.8195579930    0.9676701219
     C    -3.1128264587    3.5708407855    1.0050333897
     H    -3.7709685805    3.5790605528    0.1301679066
     H    -3.7422228451    3.5639057193    1.8998320424
     C    -1.0347340461   -0.6840997907    2.8061741258
     N    -1.1533084350   -0.9388342036    3.9328247716
     C    -0.3826813357   -2.4699874790    5.7000592729
     C    -0.8718140108   -3.7780021523    5.6306947202
     C    -0.0509604437   -4.8648573244    5.9924942007
     C     1.2570158868   -4.6440054807    6.4242731347
     C     1.7478809592   -3.3404211431    6.4982812515
     C     0.9282607419   -2.2524402695    6.1375002319
     H    -1.8933379030   -3.9659132275    5.3100172202
     H    -0.4482221038   -5.8737162516    5.9408183275
     H     2.7601242692   -3.1544475534    6.8430953566
     H     1.3203089015   -1.2414825392    6.2144903261
     H     1.8860195718   -5.4810802100    6.7092274710
     C    -1.2726961649   -1.2991364430    5.3298916628
     H    -1.0223777776   -0.4018825326    5.9044376953
     H    -2.3297070002   -1.5248695796    5.5015874333
