25
-6.3449843462381216e+02 frame 94   xyz file generated by TeraChem
    Mn     0.0016499080   -0.0020910899    0.0012181553
     C     2.5516106943    1.1416242871   -1.4371831506
     N     1.6124738529    0.7204854799   -0.9052988133
     C     3.7286832182    1.6728771840   -2.1027784438
     H     4.4864219346    1.9356676373   -1.3559334209
     H     3.4581045686    2.5714838134   -2.6685666593
     H     4.1420028570    0.9255220223   -2.7882304914
     C     0.4328897251   -2.7746690763   -1.4135343316
     N     0.2749066329   -1.7532447320   -0.8900846245
     C     0.6308325973   -4.0538944151   -2.0731873303
     H     1.6958125530   -4.3108508070   -2.0735307379
     H     0.2780547275   -3.9895200272   -3.1089456526
     H     0.0700491390   -4.8361518490   -1.5506796144
     C    -0.4353180267    2.7728054552    1.4098918969
     N    -0.2733287282    1.7498463901    0.8906838012
     C    -0.6382253487    4.0544956922    2.0632616791
     H    -0.2332940441    4.8595876050    1.4407141530
     H    -0.1244588335    4.0568053606    3.0314862468
     H    -1.7080744643    4.2251042174    2.2250274954
     C    -2.5460111210   -1.1465534072    1.4433372466
     N    -1.6084007215   -0.7249312196    0.9091385408
     C    -3.7231272821   -1.6740162476    2.1118570212
     H    -4.6200000506   -1.3968253497    1.5460021359
     H    -3.7946806204   -1.2576314844    3.1225613152
     H    -3.6609824765   -2.7657474103    2.1736391118
