11
-1.3836898027748061e+03 frame 60   xyz file generated by TeraChem
    Cr    -0.8295538269   -0.5671290339    0.1206287683
     F     0.8292396660   -0.8159222806   -0.1405401428
     S    -1.4182133943   -1.6028510380   -2.1168092378
     H    -0.3532013103   -1.2256470400   -2.8605381571
     H    -2.3231476890   -0.8230398804   -2.7529503071
     S    -1.1709858259    1.8277689340   -0.2584363837
     H    -0.3454845714    1.9770692616   -1.3233477181
     H    -0.2721388104    2.3237415529    0.6262568040
     S    -0.5544537300   -0.8636846337    2.6207627386
     H    -1.2503249853    0.0920693677    3.2795548450
     H     0.6673383598   -0.3163158318    2.8148230038
