22
-2.2059661669829416e+03 frame 170   xyz file generated by TeraChem
    Cr    -0.3036005353   -0.8917441124   -0.5074681784
     S     1.9390518843   -0.5546647841   -0.9172169203
     C     2.2070884601    0.8715127759   -0.0401230072
     N     2.4005282101    1.8354736216    0.5926978361
     S    -0.9108648630   -5.4062128110    0.3238153121
     C    -0.7314562158   -3.8710956468   -0.0443983827
     N    -0.6047048444   -2.7106958439   -0.3374601002
     S    -1.0638699950    0.6355407891   -2.0670644688
     C    -2.6138295856    0.3711437691   -1.4320683742
     N    -3.6413312513    0.1506653967   -0.9130101849
     C    -0.8559054829    0.0404796133    4.1909511546
     C    -1.8962439146    0.2432084445    3.2714845022
     C    -1.6802000599   -0.0238001109    1.9302493521
     N    -0.4926251022   -0.4688086057    1.4605917778
     C     0.5126134899   -0.6699203054    2.3432831615
     C     0.3718687653   -0.4312426172    3.6973038062
     S    -1.0060438005    0.3378688626    5.9217022372
     H    -2.8711551218    0.6017857913    3.5836387132
     H    -2.4782137426    0.1144657363    1.2061234616
     H     1.4479386839   -1.0285706690    1.9311828047
     H     1.2145900612   -0.6074793337    4.3570625672
     H    -2.2859918966    0.7617548659    5.9001899197
