49
-1.5061997939159178e+03 frame 65   xyz file generated by TeraChem
    Co    -0.0294115332   -0.0340563099    0.0271077416
     C     4.7237965102   -0.7826342647    0.7830537038
     C     4.2571058813    0.4702768987    0.3331635696
     C     2.8954808827    0.6374849645    0.1297510338
     N     1.9934801051   -0.3534975414    0.3442146352
     C     2.4456740846   -1.5567871150    0.7823017630
     C     3.7881134908   -1.8155165925    1.0118719704
     C     6.1120730743   -1.0023342396    1.0047536347
     H     4.9454886882    1.2883295734    0.1484639154
     H     2.5045570085    1.5905959599   -0.2098972403
     H     1.7017003513   -2.3287692101    0.9550297522
     H     4.1087619116   -2.7910925624    1.3623249874
     N     7.2535864750   -1.1833982336    1.1873768964
     C    -1.6319381421   -2.3775390128   -3.9296261612
     C    -0.3505813659   -2.6515795514   -3.4070809092
     C     0.0686586037   -1.9617745057   -2.2791803821
     N    -0.7027189017   -1.0355578810   -1.6562892367
     C    -1.9328571787   -0.7688752444   -2.1660506435
     C    -2.4354432027   -1.4092957280   -3.2880299741
     C    -2.1061023375   -3.0614409611   -5.0837475857
     H     0.2965605142   -3.3864143171   -3.8744876325
     H     1.0510979411   -2.1491032363   -1.8591375546
     H    -2.5226115508   -0.0124317952   -1.6570579374
     H    -3.4240325140   -1.1667500039   -3.6637728233
     N    -2.4966516795   -3.6239995059   -6.0325281461
     C    -0.8896915277    4.6902149252   -0.8060612947
     C    -0.2784942780    3.8819452677   -1.7897740835
     C    -0.0544181825    2.5440606455   -1.5034523277
     N    -0.3942398973    1.9791149520   -0.3158654405
     C    -0.9871265226    2.7581949306    0.6239594015
     C    -1.2507558009    4.1052834349    0.4257277383
     C    -1.1381646868    6.0690523024   -1.0548377622
     H     0.0084430101    4.2945869127   -2.7513917324
     H     0.4047382266    1.8955629785   -2.2435423533
     H    -1.2549572355    2.2804561315    1.5601926775
     H    -1.7245019349    4.6932913527    1.2048201231
     N    -1.3414777357    7.2030440293   -1.2595641301
     C    -2.2940787072   -1.5745209911    4.0527152658
     C    -1.1454930395   -0.7566264493    4.1333769705
     C    -0.5399344524   -0.3469072259    2.9556562779
     N    -1.0064741882   -0.6954897733    1.7288468404
     C    -2.1070273154   -1.4857594800    1.6559054703
     C    -2.7776282007   -1.9441315991    2.7800690052
     C    -2.9493027871   -2.0193211470    5.2348621628
     H    -0.7405338673   -0.4567608586    5.0943183274
     H     0.3506363861    0.2738006122    2.9847190845
     H    -2.4525609253   -1.7553595317    0.6638897419
     H    -3.6556880962   -2.5732696636    2.6781527371
     N    -3.4876537770   -2.3840513047    6.2077139441
