14
-4.7775088637600072e+02 frame 39   xyz file generated by TeraChem
    Fe     0.2024201551    0.1156201408   -0.0758005153
     C     3.0130718144   -0.9687056968   -0.1471904593
     O     2.0289482226   -0.2475823083   -0.3933807192
     H     2.9221921038   -1.8847077138    0.4603537105
     H     3.9916351313   -0.6694431996   -0.5585929278
     C    -0.5634520934   -0.7281735597   -2.8733276941
     O    -0.5470439891   -0.7841982225   -1.6336032214
     H    -1.1603143509   -1.4761896169   -3.4233578942
     H    -0.0023094708    0.0416466986   -3.4327142884
     C    -1.5962132955    2.5272845603    0.1072854681
     O    -0.6916627525    1.7722566625   -0.2937216783
     H    -2.3374690982    2.1954367154    0.8534876845
     H    -1.6439951258    3.5480205058   -0.3077950131
     I    -0.1419895521   -0.5634389260    2.3296085650
