25
-9.2318827253859035e+02 frame 45   xyz file generated by TeraChem
    Co    -0.2590056212    0.0393297542   -0.0046119894
     N     1.0936403548   -1.3002949369    0.3668691997
     C     1.9494079871   -2.0905146079    0.5687305224
     S     3.1312640027   -3.1823467506    0.8484046031
     C    -1.4896966734   -0.4584575003   -2.8809470512
     N    -0.4918875726   -0.8420946855   -1.8318801290
     H     0.4438692520   -0.8161261320   -2.2502856970
     H    -0.6300408603   -1.8301522257   -1.5995462517
     H    -1.2711020985    0.5472841875   -3.2474624857
     H    -2.4987210239   -0.5044535891   -2.4670785701
     H    -1.4274707891   -1.1471893195   -3.7277177192
     C    -2.9466859326    1.2859702422    0.1515111417
     N    -1.5602997648    1.4586756972   -0.4046815354
     H    -1.1994667163    2.3690760952   -0.1028944121
     H    -1.6356232413    1.5438552652   -1.4204749259
     H    -2.9151135889    1.3296486644    1.2411639764
     H    -3.3445862379    0.3185198429   -0.1595720986
     H    -3.6018451917    2.0812991218   -0.2137220618
     C    -0.6993794473   -0.2293974108    2.9325115111
     N    -0.0860360621    0.6832928327    1.9039138668
     H     0.9172304590    0.7572074608    2.0967572583
     H    -0.4520886482    1.6265409096    2.0531813421
     H    -0.2474696643   -1.2180912074    2.8529189239
     H    -1.7733792135   -0.3046292721    2.7552082437
     H    -0.5272714323    0.1682607806    3.9361359880
