65
-1.5581665539609105e+03 frame 87   xyz file generated by TeraChem
    Mn    -0.2399271665   -0.4337750645    0.1404521586
     C     1.4092789978    0.4041120002    0.9681970602
     N     2.3490508390    0.8973203985    1.4381714219
     C     4.8191748193    0.9754395568    1.4603256298
     C     5.4463349414   -0.1232824227    2.0605842156
     C     6.6713879398   -0.6020036755    1.5602004816
     C     7.2705755789    0.0164373217    0.4630014967
     C     6.6513031603    1.1157066956   -0.1347426636
     C     5.4255542970    1.5963217713    0.3638620970
     H     5.0032105548   -0.5976801936    2.9325683600
     H     7.1546432631   -1.4448900237    2.0439926279
     H     7.1192648803    1.6153026433   -0.9771081654
     H     4.9688183697    2.4693381954   -0.0953392853
     H     8.2212304683   -0.3452870705    0.0847401162
     C     3.5233788080    1.5206347527    2.0302347896
     H     3.4200449281    2.5948739359    1.8500769650
     H     3.4476843783    1.3471428621    3.1079441401
     C    -1.8465866726   -1.3196709213   -0.7314856804
     N    -2.7259483072   -1.8780691651   -1.2439057569
     C    -5.1537029717   -1.9541133495   -1.7559485780
     C    -5.9188583253   -2.1194240602   -0.5937565336
     C    -7.2039744613   -1.5516969662   -0.5012930912
     C    -7.7288003762   -0.8269088902   -1.5710849261
     C    -6.9727341124   -0.6659098994   -2.7335098063
     C    -5.6831798718   -1.2280886949   -2.8261230490
     H    -5.5361999935   -2.7076405880    0.2366679512
     H    -7.7893765898   -1.6985506504    0.4008483173
     H    -7.3793822588   -0.1210926924   -3.5797824226
     H    -5.1187662145   -1.1152365392   -3.7482364045
     H    -8.7258233694   -0.4033292239   -1.5063532986
     C    -3.7990662313   -2.6241293812   -1.8849442978
     H    -3.5033595644   -2.7344137880   -2.9326584972
     H    -3.7910700182   -3.6168600819   -1.4237865444
     C    -0.2571792535    1.0148658156   -1.2790445862
     N    -0.2576247162    1.8344979323   -2.1010287971
     C    -0.8561405609    4.1647117382   -2.6811675122
     C    -2.2362629451    4.3851367478   -2.7806752079
     C    -2.7877927707    5.6227473484   -2.4002784198
     C    -1.9623712073    6.6411369335   -1.9249045240
     C    -0.5855503074    6.4277525490   -1.8300549439
     C    -0.0316171666    5.1890288384   -2.2078394503
     H    -2.8884144387    3.6101923129   -3.1758668782
     H    -3.8567851619    5.7845595193   -2.4960174460
     H     0.0674380319    7.2209653978   -1.4797268106
     H     1.0447996129    5.0477948534   -2.1528674378
     H    -2.3852203245    7.6002966331   -1.6440367002
     C    -0.2562925641    2.8503882568   -3.1435074925
     H     0.7876288729    2.9672496200   -3.4497915324
     H    -0.8109110725    2.4224507261   -3.9842169293
     C    -0.2677663631   -1.8657528199    1.5778823346
     N    -0.3386535223   -2.6932221302    2.3890589400
     C     0.7564648781   -4.0051105568    4.2013661919
     C     1.6835827720   -4.9689696663    3.7900764100
     C     2.8050141252   -5.2614773543    4.5904373784
     C     2.9974343663   -4.5934564914    5.8007423682
     C     2.0736388652   -3.6335354896    6.2154304748
     C     0.9511740869   -3.3394804560    5.4173315446
     H     1.5326612549   -5.5188218907    2.8644365630
     H     3.5065304763   -6.0245318765    4.2680023701
     H     2.2019217048   -3.1234342920    7.1650221207
     H     0.2235896297   -2.6122138105    5.7691474403
     H     3.8516591229   -4.8334823905    6.4257202214
     C    -0.4906435233   -3.7479425590    3.3804917761
     H    -1.3317490126   -3.4391399172    4.0101235156
     H    -0.7980404646   -4.6381642064    2.8225312786
