48
-1.3551445935234542e+03 frame 21   xyz file generated by TeraChem
    Cr    -0.0587628909    0.0279255746    0.0457449927
     C     4.6596659344   -0.5452767165   -0.4880319182
     C     3.7735922595   -0.6339230666   -1.5901711209
     C     2.4126386906   -0.4849936939   -1.3766667487
     N     1.8863074605   -0.2488397373   -0.1307333691
     C     2.7456445685   -0.1523584762    0.9331008838
     C     4.1173377905   -0.3000604507    0.7950489503
     C     6.0644778784   -0.6999544453   -0.6699905269
     H     4.1499478765   -0.8234809324   -2.5939046580
     H     1.7111382148   -0.5579700881   -2.2071883097
     H     2.3015530339    0.0367693076    1.9067579891
     H     4.7618698010   -0.2259455119    1.6690761781
     N     7.2186969991   -0.8267936607   -0.8207189013
     C    -2.3822376031   -2.8319729195   -2.9944924510
     C    -1.1745936894   -3.2562280782   -2.3854894815
     C    -0.5118942886   -2.3957766437   -1.5250246390
     N    -0.9901479490   -1.1424061681   -1.2355243191
     C    -2.1611155311   -0.7338083232   -1.8187164651
     C    -2.8721347565   -1.5390772026   -2.6958332006
     C    -3.0857744533   -3.6911590064   -3.8875668886
     H    -0.7638533439   -4.2432241340   -2.5911482610
     H     0.4198742830   -2.6933882664   -1.0454831752
     H    -2.5120847444    0.2659885401   -1.5708379646
     H    -3.7943687627   -1.1734482623   -3.1437300640
     N    -3.6630066550   -4.3986341310   -4.6205133229
     C    -1.0186617896    4.6131516792   -0.8772530351
     C     0.0845241745    3.9759564189   -1.4920833145
     C     0.3590707512    2.6515573525   -1.1868681601
     N    -0.4000678298    1.9352335432   -0.2974396768
     C    -1.4686857419    2.5521334159    0.3032299395
     C    -1.8043819542    3.8701900911    0.0372621502
     C    -1.3315667330    5.9728114437   -1.1682584655
     H     0.7174578723    4.5128252668   -2.1963466228
     H     1.2069267867    2.1422087388   -1.6398891351
     H    -2.0510069433    1.9606502737    1.0082060448
     H    -2.6600852909    4.3236057461    0.5344559123
     N    -1.5898832787    7.0893658554   -1.4074214579
     C    -1.2511822761   -1.3107946516    4.4522026451
     C    -0.7157794968   -0.0365073904    4.1969836687
     C    -0.4146746067    0.3209131198    2.8880327733
     N    -0.6203624484   -0.5385085468    1.8419988287
     C    -1.1362222081   -1.7810160064    2.0895346242
     C    -1.4631260226   -2.1888560571    3.3802912721
     H    -1.5002071273   -1.6102054699    5.4700768243
     H    -0.5398809318    0.6760670940    5.0012999058
     H    -0.0047255667    1.3030530369    2.6510658905
     H    -1.2943024238   -2.4357785221    1.2357171700
     H    -1.8800765918   -3.1825904132    3.5356140110
