25
-1.3816475847626893e+03 frame 69   xyz file generated by TeraChem
    Fe     0.3154368697   -0.1421469300   -0.5238030590
     O     2.2788429491   -0.4539095879   -1.0816053251
     C     3.3198243122   -0.8155424686   -0.2319921580
     C     4.0833958334    0.2684922699    0.0560890124
     C     3.5045321759    1.3891026576   -0.6325377858
     C     2.4157532515    0.9323260177   -1.3156751822
     H     3.3625890374   -1.8607791711    0.0377074918
     H     4.9782198892    0.2751285118    0.6649696345
     H     1.8678506760    1.3187187721   -2.1672229041
     H     3.8871577490    2.4019241088   -0.6536480482
     O    -0.3486047609   -1.8207298228   -2.3123305547
     C    -0.2783627643   -2.0785452150   -0.9017424243
     C    -1.5743895100   -2.5404482886   -0.5342977074
     C    -2.4043652973   -2.4864918176   -1.6527802227
     C    -1.6008693012   -2.0440017552   -2.6980182975
     H     0.6247391084   -2.6378710922   -0.6575204578
     H    -1.8537906024   -2.8810207202    0.4566951178
     H    -1.8248475958   -1.8430531981   -3.7400883612
     H    -3.4521219626   -2.7489544659   -1.7198907179
     S    -1.8219421511    0.9041594130   -0.2912967081
     H    -1.4734561314    2.1766521981    0.0099436756
     H    -2.1792283650    1.2042990771   -1.5611591711
     S     0.6516743403    0.1075274890    1.7926564882
     H     2.0039614784    0.0727772493    1.8671727962
     H     0.4919167538   -1.1340683847    2.3014999590
