9
-5.1648625628229092e+02 frame 39   xyz file generated by TeraChem
    Co     0.0226787757   -0.0152253237    0.0067215846
     C     1.9493031052    0.1985201547    0.3079014673
     N     3.1009459362    0.3329098440    0.4746309116
     C    -0.4218427243   -1.4412030520   -1.2689009646
     N    -0.6826047971   -2.2981728230   -2.0236817546
     C    -0.7714371419    1.5816460987   -0.8183747802
     N    -1.2413444590    2.5409057256   -1.2991104247
     C    -0.7421228293   -0.3498806788    1.7836340119
     N    -1.2136606997   -0.5495466716    2.8371561692
