12
-1.6531177797905243e+03 frame 47   xyz file generated by TeraChem
    Mn    -0.0233684902   -0.1137310444    0.0108452662
     N     2.0727528862    0.2424836742    0.2660413925
     C     3.2062731503    0.4336741366    0.5369787254
     S     4.7916640676    0.7012552446    0.9132882537
     N    -0.2126529474   -1.6465852706   -1.4537205251
     C    -0.3948235581   -2.5288945840   -2.2175619664
     S    -0.6473188630   -3.7620669962   -3.2843095614
     N    -0.9319007770    1.6677333365   -0.7830557442
     C    -1.5424820242    2.6414102936   -1.0570793903
     S    -2.3949070227    4.0021905873   -1.4397798258
     O    -0.8532007848   -0.4842111339    1.7114737657
     H    -1.3056128219    0.3156094596    2.0183348106
