19
-9.7792348573358447e+02 frame 16   xyz file generated by TeraChem
    Mn     0.0230331701   -0.0825650449   -0.1273377018
     C     4.7332908675   -0.2229818101    0.0282534118
     C     4.0296387528    0.6910016246   -0.7925699130
     C     2.6548846992    0.7323919379   -0.7782383001
     N     1.8758698724   -0.0880106365    0.0179944663
     C     2.5708109092   -0.9853338538    0.8073242569
     C     3.9490434330   -1.0740021778    0.8284563047
     S     6.5112187850   -0.3447921524   -0.0068885606
     H     4.5730542649    1.3691993436   -1.4447962598
     H     2.0792714083    1.4116943350   -1.3970923040
     H     1.9530307936   -1.6421007387    1.4105869077
     H     4.4217083175   -1.8109456442    1.4724139977
     H     6.8528455393    0.5767479731    0.9419300209
     O    -0.6493900899   -0.9648006718   -1.5943445397
     H    -0.9696484288   -0.2641249450   -2.1875839534
     O    -0.2687210696    1.5772395939   -0.9244189342
     H     0.2080365923    2.2648956490   -0.4306979153
     O    -0.3372515974   -0.3592544915    1.6579317555
     H     0.4793343401   -0.3609112331    2.1878674287
