44
-1.2399014263710010e+03 frame 65   xyz file generated by TeraChem
    Fe     0.0158745439   -0.0144227990   -0.0856853515
     C     4.6524362383    0.8762766733    0.8009899010
     C     3.8539927683    1.8200270345    0.1180524788
     C     2.5252145763    1.5275423245   -0.1210747965
     N     1.9529094447    0.3509249109    0.2758048666
     C     2.7282753394   -0.5630697236    0.9343917027
     C     4.0621732566   -0.3401020234    1.2123122999
     C     6.0234846930    1.1428614834    1.0675424019
     H     4.2719251309    2.7644199850   -0.2157950776
     H     1.8864450709    2.2345786986   -0.6392882578
     H     2.2549409731   -1.4940916623    1.2323327897
     H     4.6431156369   -1.0908055789    1.7386995654
     N     7.1481004054    1.3606375624    1.2852322259
     C    -0.6310000609   -3.3572274683   -3.4838953201
     C     0.6709608913   -2.9190460663   -3.1567578294
     C     0.8289581533   -1.9494161570   -2.1844977177
     N    -0.2323568361   -1.3955672572   -1.5265924366
     C    -1.4933990161   -1.8173691957   -1.8478633828
     C    -1.7303727701   -2.7828701500   -2.8059205641
     C    -0.8333365938   -4.3543755393   -4.4771543703
     H     1.5395717096   -3.3337889453   -3.6584074644
     H     1.8172850929   -1.5930806259   -1.9149943361
     H    -2.3225320270   -1.3543283680   -1.3196596052
     H    -2.7464168529   -3.0912940972   -3.0311345956
     N    -1.0001808869   -5.1715270302   -5.2922327496
     C    -2.2787195737    4.0592472806   -1.2092026121
     C    -2.0260492845    3.0841586431   -2.1994461157
     C    -1.3643038114    1.9234924420   -1.8465165142
     N    -0.9398850647    1.6860128659   -0.5692271523
     C    -1.1793597504    2.6333203242    0.3875046302
     C    -1.8377389255    3.8152403673    0.1110435154
     C    -2.9603721046    5.2638900616   -1.5348925582
     H    -2.3455525747    3.2381737182   -3.2252723223
     H    -1.1550017089    1.1593343479   -2.5878602788
     H    -0.8219227545    2.4299136433    1.3931195346
     H    -2.0097489569    4.5413939849    0.8992648265
     N    -3.5188731257    6.2519261681   -1.8026159428
     C    -0.8166673562   -2.2149169977    1.9677669750
     N    -0.9384709239   -0.7405311245    1.6547864271
     H    -0.6029866485   -0.2166102722    2.4720421050
     H    -1.9368000797   -0.5075843581    1.5944831615
     H     0.2263483259   -2.4537160970    2.1805196207
     H    -1.1666810583   -2.7989715206    1.1158393942
     H    -1.4210093284   -2.4554030864    2.8468365958
