16
-2.1311008976013391e+03 frame 31   xyz file generated by TeraChem
    Mn     0.2070322735    0.3295383396    0.3878631006
     C     4.8613071621   -0.2942471258   -0.2402156325
     C     4.1527593780    0.6649801468   -0.9794327431
     C     2.7981787243    0.8361564892   -0.7511305510
     N     2.1245785998    0.1079904356    0.1655898164
     C     2.7978324724   -0.8183564180    0.8845956665
     C     4.1510402311   -1.0446894791    0.7109358388
     S     6.5865683217   -0.6051084705   -0.4373658028
     H     4.6404320518    1.2808372728   -1.7272334943
     H     2.2212682718    1.5744174332   -1.2950791072
     H     2.2196085997   -1.3699668435    1.6159495500
     H     4.6429580258   -1.7987667473    1.3159517394
     H     6.8045222985    0.3116445543   -1.4019755622
    Cl    -0.4466051675   -1.1314222428   -1.0737208006
    Cl    -0.1314633483    2.4471360445   -0.0121524565
    Cl    -0.1307369855   -0.0704207829    2.5044440281
