41
-1.2585260637009940e+03 frame 50   xyz file generated by TeraChem
    Fe    -0.0002118706    0.0015019178   -0.1687393201
     C     4.6484480233    0.8116511704    0.7409433263
     C     3.9886204365    1.4875190453   -0.3099300137
     C     2.6517630490    1.2244381281   -0.5368574448
     N     1.9447966505    0.3293119242    0.2154875534
     C     2.5818017665   -0.3204717465    1.2332964603
     C     3.9171268678   -0.1099391186    1.5229817870
     C     6.0237099858    1.0560249748    1.0077014676
     H     4.5173484497    2.2058672903   -0.9280791747
     H     2.1165718195    1.7354697226   -1.3315460364
     H     1.9899288635   -1.0169478320    1.8180890240
     H     4.3899290731   -0.6450769408    2.3402555465
     N     7.1529569962    1.2557591516    1.2251004204
     C    -0.6670920772   -3.4828218859   -3.4255332550
     C     0.6393395697   -3.1181878343   -3.0289912129
     C     0.7988711048   -2.0920673624   -2.1161893711
     N    -0.2599839814   -1.4176819275   -1.5812229049
     C    -1.5225161879   -1.7699781005   -1.9681075734
     C    -1.7659765655   -2.7840973240   -2.8733328781
     C    -0.8737818253   -4.5295559523   -4.3635277551
     H     1.5068400255   -3.6302807935   -3.4329412995
     H     1.7891478182   -1.7890101682   -1.7943880493
     H    -2.3478085995   -1.2179238881   -1.5274092180
     H    -2.7838865635   -3.0383574941   -3.1511473034
     N    -1.0445550700   -5.3896882730   -5.1354316650
     C    -2.2670192204    4.1261823854   -1.1665855837
     C    -2.1080473693    3.1487347826   -2.1751683947
     C    -1.4624587630    1.9660063281   -1.8645930340
     N    -0.9706988301    1.7088265861   -0.6184319598
     C    -1.1186664143    2.6573014268    0.3537559845
     C    -1.7550453386    3.8617753583    0.1236433722
     C    -2.9266485041    5.3534722831   -1.4473231478
     H    -2.4859935852    3.3182046760   -3.1783532101
     H    -1.3241185496    1.1997737311   -2.6205581929
     H    -0.7098219644    2.4322007330    1.3347872271
     H    -1.8553350520    4.5886732113    0.9233035521
     N    -3.4692998793    6.3612073910   -1.6792791121
     C    -1.5705611305   -1.2101040998    2.3525445955
     O    -0.7723436492   -0.8082011651    1.4987320403
     H    -1.1950659146   -1.6909192125    3.2654903857
     H    -2.6537822207   -1.0947747450    2.2130710229
