9
-2.0261247564198966e+03 frame 52   xyz file generated by TeraChem
    Fe     0.3576505583   -0.2665739782   -0.3106281601
     N     2.2009215468   -0.4869849457   -0.0468663031
     C     3.3244200395   -0.4108620917    0.3444052054
     S     4.8599086502   -0.3543311166    0.8317983376
     N    -0.6854723688   -1.1794787268   -1.5862667799
     C    -1.5390236041   -1.5591921840   -2.3262903127
     S    -2.6595883131   -2.1126696899   -3.3453994032
    Cl     0.0762203825    1.8849993879   -0.7122795883
    Cl    -0.6143952183   -0.6419333028    1.6430924287
