29
-5.0582033101964032e+02 frame 56   xyz file generated by TeraChem
    Fe     0.0779585048    0.0403923668   -0.0363058409
     C     2.7813860557   -1.1718822035    0.3559809894
     N     2.0164570054    0.1071138736    0.0887549774
     H     2.3619650507    0.5128805256   -0.7971374122
     H     2.2756126427    0.7968282076    0.8087075351
     H     2.6247188027   -1.8806493815   -0.4578851068
     H     2.4815872878   -1.5909683885    1.3180599735
     H     3.8497146736   -0.9216497470    0.4018916666
     C    -1.6212953193   -1.6162827156   -1.7584713945
     N    -0.2098888146   -1.5670955511   -1.1973521501
     H     0.4416611925   -1.5515541660   -1.9960893095
     H    -0.0142432837   -2.4635390110   -0.7321287402
     H    -1.8087409347   -0.7256804186   -2.3627646792
     H    -2.3450601270   -1.7062220297   -0.9451005926
     H    -1.7151780888   -2.4984305453   -2.4044643109
     C    -1.8593584680    2.2340919080   -0.2267078028
     N    -0.3842041167    1.9881600686    0.0418468850
     H    -0.1392980259    2.4295257869    0.9376294567
     H     0.1542195124    2.5215362618   -0.6575716664
     H    -2.4641525983    1.7891848478    0.5666082322
     H    -2.1277568590    1.8291480974   -1.2053672790
     H    -2.0424878337    3.3159869873   -0.2390683680
     C    -0.3392838173    0.1517125708    2.9332312369
     N    -0.5754010671   -0.6505535673    1.6731306284
     H    -1.5918168581   -0.7968250612    1.5627009184
     H    -0.1895202452   -1.5941976652    1.8168437249
     H    -0.8678386677    1.1039537400    2.8775646320
     H     0.7320054873    0.2925451581    3.0899081219
     H    -0.7409376078   -0.4206371832    3.7800315434
