31
-7.3215961294063584e+02 frame 45   xyz file generated by TeraChem
    Fe    -0.0749413033    0.0770448483    0.1399221196
     N     2.0337535367    0.1869630865    0.3085802346
     H     2.3836500628    1.1403150152    0.4749325534
     H     2.3772451195   -0.3668198446    1.1050198651
     H     2.5587299783   -0.1596825000   -0.5058322594
     N    -0.5106394863   -1.2647118934   -1.4343866524
     H    -0.1916693145   -0.9195465963   -2.3500460836
     H    -0.1022423820   -2.2051675650   -1.3463573705
     H    -1.5228212797   -1.4135188364   -1.5496668438
     C    -1.8505335951    4.2385844272   -1.3327629647
     C    -0.5853025819    3.8108460043   -1.7713705191
     C    -0.0873598530    2.6073081646   -1.3068788971
     N    -0.7936613971    1.8246952269   -0.4304302032
     C    -2.0268448564    2.2432955810   -0.0026583134
     C    -2.5776753606    3.4356676935   -0.4375132004
     H    -2.2626555925    5.1814772962   -1.6844998358
     H     0.0027198271    4.4042429800   -2.4654139949
     H     0.8836939096    2.2449680665   -1.6327184242
     H    -2.5578417668    1.5989271199    0.6916975508
     H    -3.5595122190    3.7343185520   -0.0821744752
     C    -1.4540084672   -1.3617403802    4.4538352645
     C    -1.0732817493   -0.0273580390    4.2333051877
     C    -0.7056528532    0.3641422243    2.9584385181
     N    -0.6971245050   -0.5206312327    1.9110595355
     C    -1.0675517451   -1.8208969290    2.1260217973
     C    -1.4490555040   -2.2673003577    3.3793531578
     H    -1.7498286719   -1.6911678546    5.4471138243
     H    -1.0636197232    0.6980598385    5.0414947669
     H    -0.4094211235    1.3885851649    2.7490594456
     H    -1.0536305133   -2.4987943880    1.2773064096
     H    -1.7371785030   -3.3057669627    3.5142849621
