8
-2.9400635747548233e+02 frame 47   xyz file generated by TeraChem
    Co    -0.0164891945   -0.5946285426    0.2152807185
     C     2.8674417731    0.5156687199   -0.2366419684
     O     2.2244272054   -0.4590296875    0.1041545707
     H     3.9710202576    0.4718747591   -0.2524432192
     H     2.3723889295    1.4547520915   -0.5289146729
     I    -0.2016217357   -1.9556530273   -2.0845404819
     I    -0.4975886983    2.0725449962    0.1361915481
     I    -0.5944746462   -1.5045184705    2.6458884813
