9
-4.7252625587033970e+02 frame 51   xyz file generated by TeraChem
    Ni     0.3340959833   -0.2742970489   -0.3132096060
     O     2.1988851021    0.1558048646    0.0406282371
     H     1.9381073865    1.0954921929    0.1175938032
     O    -0.3540288346   -1.4886097618   -1.6874897759
     H    -1.0390673155   -1.8121938740   -1.0741214547
     O    -0.1577992881    1.6871705605    0.0197625573
     H    -0.2551112518    1.6071389408    0.9855910014
     O    -1.0638664506   -0.8851517090    1.0259706225
     H    -1.6013194550   -0.0854058645    0.8852470388
