38
-1.5852226732847821e+03 frame 55   xyz file generated by TeraChem
    Mn     0.3642508114    0.3447605476    0.0148399172
     C     4.9647905803   -0.9143398943    0.1592434268
     C     4.5695472530    0.4188000180   -0.0557673137
     C     3.2180372238    0.7111258493   -0.1239609719
     N     2.2674480956   -0.2507245225   -0.0007519543
     C     2.6409830470   -1.5352550447    0.2202447760
     C     3.9734269698   -1.9027844420    0.3000089925
     C     6.3495809086   -1.2569947989    0.2371336976
     H     5.3032024338    1.2107386697   -0.1593846978
     H     2.8849309152    1.7358230293   -0.2731997197
     H     1.8504545450   -2.2666153491    0.3481923465
     H     4.2400795680   -2.9388154492    0.4784912767
     N     7.4768140171   -1.5370837306    0.2936697844
     C    -1.0968067453   -2.0752068214   -3.8794338561
     C     0.1695829777   -1.4630619515   -3.9234366839
     C     0.6025232300   -0.7345193890   -2.8282327869
     N    -0.1608809676   -0.5777336215   -1.7176498823
     C    -1.3871332737   -1.1632594989   -1.6752698901
     C    -1.8832522616   -1.9195951460   -2.7241830006
     C    -1.5737940978   -2.8391908066   -4.9885491989
     H     0.8050184509   -1.5612305715   -4.7969145427
     H     1.5781985669   -0.2612912570   -2.8290092385
     H    -1.9805435506   -1.0184573529   -0.7758962875
     H    -2.8636660637   -2.3771460399   -2.6487418003
     N    -1.9611591449   -3.4592436928   -5.8928659187
     C    -2.6287507339    4.0632739831   -0.6371873848
     C    -1.7315704989    3.6317038027   -1.6321718410
     C    -0.9492811232    2.5185110680   -1.3873384024
     N    -0.9988646008    1.8328871160   -0.2122567200
     C    -1.8628519183    2.2498053296    0.7502018357
     C    -2.6896979548    3.3473426556    0.5696357216
     C    -3.4611958315    5.2036789604   -0.8558187107
     H    -1.6542554847    4.1535387357   -2.5796066208
     H    -0.2676100104    2.1519093657   -2.1481124745
     H    -1.8765754246    1.6896030758    1.6762964931
     H    -3.3669228443    3.6455947468    1.3626229974
     N    -4.1384402732    6.1312091947   -1.0380607540
    Cl     0.0900789012    0.0393683673    2.1382054916
