53
-1.3838220002817247e+03 frame 114   xyz file generated by TeraChem
    Cr    -0.0122759383   -0.0062631418    0.0067331556
     C     1.6899853901    0.8852333570    0.8925075484
     N     2.6278319466    1.3769810168    1.3785199938
     C     3.7446739247    1.9622292386    1.9574224801
     C     3.6569691473    3.2855623639    2.4164428227
     C     4.7823930767    3.8605673260    2.9971886087
     C     5.9682946025    3.1274896744    3.1123184996
     C     6.0385340717    1.8099422746    2.6475004033
     C     4.9257315432    1.2118705375    2.0656857541
     H     2.7280750396    3.8373517370    2.3184264438
     H     4.7344575386    4.8818911857    3.3604618326
     H     6.9620441185    1.2476149665    2.7387051689
     H     4.9609883661    0.1916923766    1.6983448886
     H     6.8418603146    3.5852070717    3.5658124875
     C    -1.7160287730   -0.8964434456   -0.8731287666
     N    -2.6586283806   -1.3854330794   -1.3532039012
     C    -3.7824679595   -1.9675147641   -1.9198977271
     C    -4.7772619705   -2.4848806632   -1.0755688407
     C    -5.9010010399   -3.0649789002   -1.6540554480
     C    -6.0236818014   -3.1274523075   -3.0462015198
     C    -5.0220564226   -2.6081858815   -3.8732966812
     C    -3.8901245745   -2.0207784126   -3.3182561139
     H    -4.6647492440   -2.4253648555    0.0018204350
     H    -6.6824928015   -3.4683303578   -1.0184771590
     H    -5.1232935685   -2.6612246365   -4.9523294568
     H    -3.1019037722   -1.6142520449   -3.9430454821
     H    -6.9039848894   -3.5830823986   -3.4886311641
     C    -0.0192858411    1.4903815033   -1.4895524835
     N    -0.0202722280    2.3168611644   -2.3107553743
     C    -0.0203314566    3.3014834704   -3.2885698618
     C    -1.0967659224    4.2000213254   -3.3476053296
     C    -1.0842159906    5.1834558452   -4.3311238510
     C    -0.0196591031    5.2623745266   -5.2352268129
     C     1.0445601254    4.3573597425   -5.1625666346
     C     1.0563980429    3.3667249918   -4.1863258618
     H    -1.9129348457    4.1230677869   -2.6370272025
     H    -1.9061327995    5.8891848383   -4.3925687631
     H     1.8668963194    4.4238100777   -5.8673486947
     H     1.8724856780    2.6555958923   -4.1139400706
     H    -0.0193240528    6.0327595870   -5.9998821766
     C    -0.0039286605   -1.5046546899    1.5001233176
     N     0.0080986276   -2.3295876953    2.3229537685
     C     0.0237101790   -3.3115150695    3.3029063955
     C     0.0362402931   -4.6597859959    2.9133586089
     C     0.0543568862   -5.6348713257    3.9049271962
     C     0.0570307202   -5.2671886406    5.2547112824
     C     0.0429118509   -3.9182421240    5.6251501469
     C     0.0274593686   -2.9247280689    4.6520114951
     H     0.0357193408   -4.9243458330    1.8612365704
     H     0.0668168045   -6.6831540499    3.6250100258
     H     0.0440437017   -3.6404743970    6.6740742014
     H     0.0153042838   -1.8732385312    4.9187135921
     H     0.0703753967   -6.0354310694    6.0214419409
