25
-6.1633832982653689e+02 frame 104   xyz file generated by TeraChem
    Cr     0.1600995010    0.2110103610   -0.0483890142
     C     3.2030204545   -0.2400308592    0.3986256437
     N     2.0507612087   -0.1173126138    0.2375391093
     C     4.6205323703   -0.3866112939    0.5959777730
     H     4.8570187170   -0.2994746409    1.6667638568
     H     5.1542205920    0.4004164126    0.0421986397
     H     4.9463486095   -1.3714758923    0.2297462700
     C    -0.6746835223   -1.6015123154   -2.3781345397
     N    -0.3615744156   -0.9200996375   -1.4822556745
     C    -1.0580342190   -2.4430136651   -3.4815059574
     H    -0.1594092541   -2.8395320009   -3.9764149774
     H    -1.6433873416   -1.8584282016   -4.2069041777
     H    -1.6707229312   -3.2791495131   -3.1131603733
     C    -1.2661095518    2.9332344123   -0.5029466177
     N    -0.7806081106    1.8834916547   -0.3263421360
     C    -1.8611704776    4.2258607003   -0.7164623744
     H    -1.4950208649    4.6535763913   -1.6611981353
     H    -1.5944474828    4.8968486472    0.1138522176
     H    -2.9560138181    4.1261636366   -0.7611342929
     C    -1.1695345893   -0.9709260796    2.4487210879
     N    -0.6673432145   -0.5281761915    1.4913907217
     C    -1.7883734243   -1.5151061408    3.6298309986
     H    -2.8801749784   -1.5399112616    3.4959003143
     H    -1.5469792832   -0.8836329824    4.4977394235
     H    -1.4205939178   -2.5360585647    3.8074488259
