13
-1.4221270133872736e+03 frame 49   xyz file generated by TeraChem
    Mn     0.1385625507   -0.4830145683    0.4761377891
     N     1.8889496809   -0.2064032555    0.2249588300
     C     2.8604835128    0.4603945565   -0.0538679470
     S     4.1714393126    1.2614672213   -0.4050905953
     N    -0.3821491630   -1.6534201699   -0.7631795807
     C    -0.8321778946   -1.9001053612   -1.8611715327
     S    -1.4051076846   -2.3121468251   -3.2691109472
     O    -0.6552111015    1.1067086921    0.1643789883
     N    -0.4328966416    2.3638635392   -1.9274990488
     C    -0.5261809542    1.7468476735   -0.9363554974
     O    -0.6043101120   -0.7632969255    2.1082630976
     N    -2.4352343856    0.3336472314    3.2991929756
     C    -1.5598709222   -0.1709598221    2.7042861888
