29
-8.5137168949486272e+02 frame 90   xyz file generated by TeraChem
    Co    -0.2991510102   -0.8799227724    0.5773238197
     C     1.6357372841   -0.5803478844    0.2924536874
     N     2.7479084175   -0.4116221770    0.0043573540
     C     5.2526546307   -0.6258865944    0.1637027128
     C     5.2263638115   -1.3915951267    1.3285267371
     C     6.4330488533   -1.8100080436    1.8833695840
     C     7.6994459328   -1.4597124008    1.2669956016
     C     7.7282429594   -0.6901852429    0.0967424834
     C     6.5296231213   -0.2754296048   -0.4535832572
     H     4.2908297021   -1.6637594225    1.8047898355
     H     6.4431391827   -2.4082893684    2.7906853304
     H     8.6723049474   -0.4248511691   -0.3690297884
     H     6.5300752519    0.3227529249   -1.3624871228
     H     8.6218279793   -1.8041541171    1.7286642067
     C     4.0345105863   -0.0982979248   -0.5600009986
     H     4.0268668814   -0.4797486942   -1.5924713650
     H     4.0947114735    0.9978712952   -0.6319489215
     C    -0.6371280857   -3.6888358732   -0.0326143395
     O    -0.0397509854   -2.6225054016   -0.2179296545
     H    -0.3588417586   -4.5526787501   -0.6482121092
     H    -1.4276155958   -3.7908526575    0.7215097791
     C    -0.5572643241    1.8079897157    1.8140585391
     O    -0.6473477611    0.9856232684    0.8968862201
     H    -0.9069769334    2.8322710957    1.6340217712
     H    -0.1431735077    1.5448999472    2.7967841171
     C    -3.2287144741   -0.7443307903    0.6679111624
     O    -2.1570999625   -1.3193366195    0.8895368417
     H    -3.2718374352    0.2441324047    0.1916685474
     H    -4.1616112850   -1.2450951962    0.9548084562
