13
-4.4392933378116919e+02 frame 37   xyz file generated by TeraChem
    Co     0.1137565811   -0.1688113869   -0.2360895001
     C     1.9277529775    0.6452464279   -0.0239431041
     N     2.9478640021    1.1870635059    0.1570374277
     C    -1.2614403056   -1.4429749788   -0.9195476912
     N    -2.1139669684   -2.1808016993   -1.2296155118
     N    -0.7468183588    1.7928976974   -0.6233214351
     H    -1.7598312817    1.8520700692   -0.5247232987
     H    -0.3114345032    2.5018215022   -0.0335946518
     H    -0.5199751750    2.0394475061   -1.5875358175
     N    -0.3334073070   -0.6967769042    1.8328609590
     H    -1.0418203009   -1.4296558503    1.8542092602
     H     0.5183804690   -1.0608530913    2.2611690541
     H    -0.6507659338    0.0755975691    2.4177185571
