11
-1.7181923466334665e+03 frame 9   xyz file generated by TeraChem
    Co     0.1754509920    0.0453164369   -0.5651018359
     S     2.5529488136   -0.4174452881   -0.9036594940
     C     3.4028952014    0.0747872275    0.4696772336
     N     4.0583928502    0.3886580147    1.3929372110
     S    -0.8686154961   -0.3559564950   -2.7045368388
     C    -0.7340531552   -2.0129484974   -3.0108998592
     N    -0.6785824870   -3.1538486615   -3.2851619048
     S     0.0598317247    2.5061116486   -0.3949509984
     C    -1.5649983974    2.9496469938   -0.2884183609
     N    -2.6749907615    3.3283954674   -0.2090601125
     F    -0.5437607331   -0.7128308873    0.8868188630
