17
-1.4759794596878137e+03 frame 70   xyz file generated by TeraChem
    Mn     0.0027975954   -0.0421418674    0.0130348295
     P     2.6071213531    0.3468045978    0.4519592452
     H     2.9531872117    1.0781723491    1.6051532558
     H     3.4081698968   -0.8013980290    0.6080953659
     H     3.3236613294    1.0462595083   -0.5388614961
     P    -0.3395859259   -1.4369180827   -2.2395169280
     H     0.3203866505   -2.6775770995   -2.3366412232
     H    -1.6597727403   -1.8050340669   -2.5648267290
     H     0.0718589827   -0.8157306260   -3.4349782266
     P    -1.1776449546    2.3326125831   -0.3267045551
     H    -2.5688607162    2.3289402429   -0.5485090310
     H    -1.0751217803    3.2555902534    0.7326482046
     H    -0.7325167392    3.1144020328   -1.4107415916
     P    -1.0887604994   -1.2632506352    2.1198098085
     H    -0.7384197496   -2.6116530708    2.3277123623
     H    -0.8118543807   -0.7110066795    3.3857322630
     H    -2.4948966995   -1.3381050092    2.1564447552
