25
-8.0641602676954312e+02 frame 50   xyz file generated by TeraChem
    Fe     0.1226397091   -0.2330288205   -0.1627940131
     C     4.8622865017    0.4465400698    0.6518801069
     C     4.3332756405    0.5301264852   -0.6693077410
     C     2.9775676995    0.3313628541   -0.8437232401
     N     2.1312772049    0.0623417740    0.1990345898
     C     2.6330580195   -0.0206213899    1.4621143768
     C     3.9793621793    0.1622296441    1.7390800669
     C     6.2351263900    0.6390456805    0.8876484410
     H     4.9768978724    0.7438812277   -1.5178882258
     H     2.5413568275    0.3858005020   -1.8366430878
     H     1.9296441266   -0.2356810461    2.2590756721
     H     4.3503860228    0.0905658781    2.7577656764
     N     7.3904056751    0.8007485766    1.0876521932
     C    -0.4321416772   -2.5019866110   -2.3225950789
     O    -0.1104147636   -1.6943767653   -1.4414970650
     H    -0.8291027886   -2.1516008017   -3.2849183522
     H    -0.3155292389   -3.5788180996   -2.1413770997
     C    -1.2826771968    2.3388585835   -1.4415614814
     O    -0.6996022630    1.4009116651   -0.8842073115
     H    -1.5085531522    2.2970388919   -2.5156853595
     H    -1.5758417231    3.2222985146   -0.8586929377
     C    -1.5922584735   -0.8348810960    2.3925022562
     O    -0.6632301109   -0.5599367034    1.6194206413
     H    -2.6052260801   -1.0335785373    2.0181897246
     H    -1.3976101361   -0.8798448015    3.4716734309
