29
-4.6875123739316643e+02 frame 64   xyz file generated by TeraChem
    Cr    -0.0257336316    0.2332859997   -0.0138558748
     C     2.8407117824   -0.8283092095    0.5502507442
     N     1.9451557676    0.3985537216    0.4966486172
     H     2.3746492173    1.0625150593   -0.1681382889
     H     2.0135481475    0.8819878926    1.4036078224
     H     2.9607037844   -1.2398136509   -0.4523308052
     H     2.4189418980   -1.5652952856    1.2348033147
     H     3.8236697130   -0.5166676538    0.9228540384
     C    -1.1986097519   -1.6141766568   -1.9849046895
     N     0.0063619229   -1.5808159870   -1.0653482441
     H     0.8541588395   -1.6917875817   -1.6372820220
     H    -0.0029191715   -2.4206868943   -0.4739328389
     H    -1.1461297870   -0.7816775122   -2.6937415150
     H    -2.1183815588   -1.5731386128   -1.3938284140
     H    -1.2051768414   -2.5478309809   -2.5601546325
     C    -2.0469814936    2.4482733185   -0.3208580955
     N    -0.5804983791    2.2503658533    0.0472910689
     H    -0.4068566110    2.7455934671    0.9314944580
     H    -0.0255557463    2.7898313332   -0.6351533168
     H    -2.6846817439    2.0459530011    0.4689598737
     H    -2.2548651416    1.9635581771   -1.2791184709
     H    -2.2535201523    3.5190742099   -0.4261929813
     C    -0.3364525180   -1.4029287647    2.6152223322
     N    -0.8607538632   -0.2396169034    1.7954113645
     H    -0.8670614558    0.5925563175    2.4013968475
     H    -1.8586790738   -0.4162603211    1.5972490103
     H     0.6671478930   -1.1732907007    2.9748163520
     H    -0.3436226215   -2.3133613995    2.0152417033
     H    -0.9985986416   -1.5425366170    3.4783662335
