25
-7.3580236368358271e+02 frame 51   xyz file generated by TeraChem
    Fe     0.1777817438    0.0901340200   -0.0617588711
     O     2.1656248049   -0.2503873435   -0.1834632954
     C     3.1457038451    0.2050419555    0.7355270791
     C     4.3403180823    0.2475914282    0.1183174109
     C     4.1487179158   -0.1869086835   -1.2472516428
     C     2.8449683144   -0.4774375415   -1.4088518708
     H     2.7900581219    0.3981696157    1.7360216420
     H     5.2769203059    0.5409621737    0.5737716020
     H     2.2382543645   -0.8595904518   -2.2159530286
     H     4.9154516850   -0.2793402365   -2.0051103929
     O    -0.7528984298   -1.2671466187   -1.2385737468
     C    -0.3499675185   -2.6243394505   -1.3356614145
     C    -1.3406922281   -3.3348369494   -1.9044793865
     C    -2.4291974012   -2.4268760563   -2.1896514517
     C    -2.0586815579   -1.1990250778   -1.7831913183
     H     0.6432189545   -2.8444981120   -0.9737385227
     H    -1.3163925537   -4.3953524051   -2.1175841110
     H    -2.5104016617   -0.2188877498   -1.8005843695
     H    -3.3718522330   -2.6806735781   -2.6561709744
     O    -0.1875561844    1.9706481843   -0.7764546099
     H    -0.3086447986    2.2060182730   -1.7167977169
     H    -0.0174276547    2.8076834233   -0.3022302371
     O    -0.5667107257   -0.0978006894    1.8289665063
     H    -1.4142037628    0.2753917965    2.1400563059
     H    -0.3088995183   -0.7797759339    2.4793744728
