11
-1.6297561655550717e+03 frame 27   xyz file generated by TeraChem
    Co     0.3324914611    0.1500438594   -0.5201865497
     S     2.6531304811   -0.1184257373   -0.8657539419
     C     3.2874518690    0.8921524033    0.3278116740
     N     3.7582306749    1.5945504289    1.1396148171
     S    -0.7647422712   -0.8379401484   -2.3868071198
     C    -0.6089204158   -2.4987385465   -2.1503725817
     N    -0.5161539786   -3.6625605755   -2.0461617712
     S    -0.0280958851    2.4514547454   -0.8909639645
     C    -1.6941992118    2.5596749462   -1.0991731675
     N    -2.8508298313    2.6739732177   -1.2562945718
     I    -0.6144455757   -0.7554377608    1.7595307437
