45
-1.1156770686509558e+03 frame 41   xyz file generated by TeraChem
    Fe    -0.2135890380   -0.1811402740    0.0416024381
     C     4.4048208187   -0.7173562022    0.4908727224
     C     3.9129893775    0.5164328529    0.0562783411
     C     2.5417960739    0.6948472559   -0.0779639404
     N     1.6744693472   -0.3075694037    0.2119662011
     C     2.1419688236   -1.5091979884    0.6461854246
     C     3.5016010971   -1.7454233263    0.7877781723
     H     5.4740426423   -0.8769275757    0.6002251316
     H     4.5789502449    1.3398553322   -0.1823575697
     H     2.1226936057    1.6338172717   -0.4141551926
     H     1.4117930980   -2.2799379604    0.8800138618
     H     3.8398984386   -2.7179575119    1.1315634280
     C    -1.5597384154   -2.3181237760   -3.9406036330
     C    -0.2872723680   -2.5849197551   -3.4225609550
     C     0.1451121483   -1.8913659533   -2.3024995732
     N    -0.6339447372   -0.9539711413   -1.6938834033
     C    -1.8688171046   -0.6843957449   -2.2094446158
     C    -2.3618814955   -1.3532580951   -3.3182289966
     H    -1.9189142910   -2.8481828951   -4.8184989517
     H     0.3657843756   -3.3204707289   -3.8813817865
     H     1.1259251735   -2.0645410452   -1.8755213199
     H    -2.4534374499    0.0856427583   -1.7142070970
     H    -3.3529058049   -1.1150808258   -3.6912211683
     C    -1.2088918985    4.2992954506   -0.8986147045
     C    -0.5139498610    3.5199935849   -1.8321429451
     C    -0.2103579260    2.2025266760   -1.5254422901
     N    -0.5669906202    1.6526579866   -0.3307327089
     C    -1.2402202667    2.4054193091    0.5826310209
     C    -1.5771836003    3.7273157041    0.3215587334
     H    -1.4569050935    5.3336572525   -1.1205851825
     H    -0.2125289524    3.9230029072   -2.7940412424
     H     0.3115418408    1.5632084033   -2.2279703090
     H    -1.4965248971    1.9327205476    1.5218665775
     H    -2.1161743388    4.2936880216    1.0746531170
     C    -1.5171169782   -1.1647106292    4.4654528373
     C    -2.1815596551   -1.6645177523    3.3410031959
     C    -1.7291443326   -1.2978796850    2.0812184528
     N    -0.6562734568   -0.4747803451    1.9125447263
     C    -0.0083044243    0.0108010087    3.0047532951
     C    -0.4176430097   -0.3142386542    4.2896839365
     H    -1.8504130563   -1.4327406447    5.4643056449
     H    -3.0372715958   -2.3257920683    3.4324056107
     H    -2.2225682118   -1.6656399796    1.1827213191
     H     0.8385982873    0.6645044762    2.8274493903
     H     0.1204759870    0.0924621819    5.1401607643
