65
-1.5586731735086662e+03 frame 145   xyz file generated by TeraChem
    Mn     0.0062434445   -0.0056748369    0.1206350734
     C     2.1179668844   -0.3126010500    0.5071323592
     N     3.2458607524   -0.4851736487    0.7166034898
     C     5.2380554734   -1.6711261702   -0.0965181819
     C     5.1879665259   -3.0562820356    0.1023829174
     C     5.7358692592   -3.9153950892   -0.8496856590
     C     6.3339769855   -3.3935468775   -1.9994526174
     C     6.3864881857   -2.0119822306   -2.1980504019
     C     5.8382663406   -1.1496250473   -1.2486456671
     H     4.7413927423   -3.4635371034    1.0067555178
     H     5.7104932207   -4.9885775183   -0.6871091856
     H     6.8657985230   -1.6056265216   -3.0833812450
     H     5.8961798233   -0.0736946116   -1.3964762700
     H     6.7709427803   -4.0632758627   -2.7339890177
     C     4.6590727097   -0.7359168116    0.9432337609
     H     5.1445750329    0.2448524663    0.9340816125
     H     4.7322995540   -1.1439339766    1.9562838637
     C    -0.6415052893   -1.4781159363   -1.3322165103
     N    -0.9770574084   -2.2679388226   -2.1128690998
     C    -2.9017912698   -3.0413381322   -3.4303193313
     C    -3.8885453072   -3.7013028277   -2.6879776771
     C    -5.2339890313   -3.5297981040   -3.0122884817
     C    -5.5955201023   -2.6996988149   -4.0761698366
     C    -4.6120072067   -2.0422383309   -4.8190008383
     C    -3.2654516635   -2.2111595954   -4.4973876930
     H    -3.6074184539   -4.3636502871   -1.8723048230
     H    -5.9974650582   -4.0538368782   -2.4455448493
     H    -4.8921201135   -1.4106825055   -5.6565059780
     H    -2.5002353043   -1.7143387002   -5.0895004082
     H    -6.6428051212   -2.5758845857   -4.3347115467
     C    -1.4406581785   -3.2395773319   -3.0893492725
     H    -0.7906253472   -3.1217486608   -3.9619533936
     H    -1.2478122444   -4.2227449757   -2.6487837203
     C    -0.3151125880    1.9714075799   -0.7060588411
     N    -0.4860162707    3.0275926814   -1.1544672984
     C    -0.9954319922    5.3570731302   -0.5601202054
     C    -2.3182900871    5.6088817978   -0.1771800075
     C    -2.5858840881    6.5349763287    0.8308279603
     C    -1.5346120972    7.2076387136    1.4581480458
     C    -0.2140952931    6.9573374522    1.0769093999
     C     0.0573319083    6.0329490444    0.0686174828
     H    -3.1389942620    5.0998554970   -0.6774548994
     H    -3.6130521651    6.7415122211    1.1154756097
     H     0.6018795684    7.4922144504    1.5531450280
     H     1.0847080634    5.8548284031   -0.2409686862
     H    -1.7451734966    7.9366812072    2.2347729406
     C    -0.7055592194    4.3686609142   -1.6692602273
     H     0.1983522885    4.6268671443   -2.2298275823
     H    -1.5361527735    4.2876785582   -2.3771480562
     C    -1.1004369832   -0.2619441495    1.9646704179
     N    -1.7015140385   -0.4007753794    2.9470296098
     C    -1.5015591510   -1.0272142740    5.3158989727
     C    -1.2795951481   -2.3901046436    5.5469902177
     C    -0.4472907662   -2.7916434204    6.5915747014
     C     0.1641434600   -1.8342223187    7.4046216795
     C    -0.0569841339   -0.4740609043    7.1755382138
     C    -0.8886455573   -0.0687410718    6.1318680180
     H    -1.7700098468   -3.1373284634    4.9271792057
     H    -0.2886384141   -3.8490696655    6.7797637808
     H     0.4051450936    0.2696358720    7.8174749259
     H    -1.0746135047    0.9900503978    5.9667269222
     H     0.8023789431   -2.1484948730    8.2249494305
     C    -2.4205857288   -0.5901848874    4.1956406483
     H    -2.9088807668    0.3658966187    4.4086670230
     H    -3.1979695733   -1.3309980005    3.9837836645
