45
-1.1157100442454166e+03 frame 70   xyz file generated by TeraChem
    Fe    -0.0013208142   -0.0188531101    0.0338549061
     C     4.6742670334   -0.8066430468    0.7461288960
     C     4.2397675528    0.4296056918    0.2531613459
     C     2.8831816734    0.6394545480    0.0612073544
     N     1.9621074706   -0.3259754745    0.3405044778
     C     2.3861552549   -1.5288987426    0.8260739152
     C     3.7284612481   -1.7990938149    1.0360804383
     H     5.7328127058   -0.9940082259    0.9044706577
     H     4.9427594096    1.2231348755    0.0205179990
     H     2.5064496515    1.5855338807   -0.3126613013
     H     1.6217748161   -2.2688372950    1.0465601360
     H     4.0268727066   -2.7682790583    1.4230451429
     C    -1.6641434635   -2.3151414710   -3.8332023874
     C    -0.4137692393   -2.6567040945   -3.3040454486
     C     0.0574162727   -1.9744934837   -2.1928695371
     N    -0.6652229481   -0.9807323264   -1.6036573912
     C    -1.8797705454   -0.6417420742   -2.1252743029
     C    -2.4053063387   -1.2894666895   -3.2311827683
     H    -2.0541120081   -2.8363173057   -4.7032905445
     H     0.1904927605   -3.4421306958   -3.7468491247
     H     1.0238670525   -2.2102850615   -1.7596468586
     H    -2.4162607349    0.1693119014   -1.6409590660
     H    -3.3754085562   -0.9919049627   -3.6164644656
     C    -0.7431944410    4.6545506263   -0.7753341249
     C    -0.2137014204    3.8264896626   -1.7740696186
     C    -0.0287190980    2.4805011052   -1.5030080872
     N    -0.3409519270    1.9420200760   -0.2880687504
     C    -0.8608000381    2.7481823803    0.6803197678
     C    -1.0723135881    4.1015240970    0.4678127114
     H    -0.8994130905    5.7129752126   -0.9652411379
     H     0.0483848123    4.2176701939   -2.7520074901
     H     0.3643674075    1.8046463878   -2.2572075659
     H    -1.1034607739    2.2839686843    1.6301787234
     H    -1.4879773349    4.7102499826    1.2644536664
     C    -2.3043000877   -1.4921813781    3.9705177675
     C    -2.8102748436   -1.8229330135    2.7076446261
     C    -2.1303108714   -1.3989633609    1.5766112779
     N    -0.9824001981   -0.6692986122    1.6627249677
     C    -0.4854610406   -0.3539746324    2.8941587672
     C    -1.1220121261   -0.7455165956    4.0605384592
     H    -2.8208502105   -1.8132201703    4.8709680261
     H    -3.7209398045   -2.4033131454    2.5987938641
     H    -2.4891678090   -1.6380740125    0.5814640709
     H     0.4406411549    0.2136062174    2.9226537243
     H    -0.6963960945   -0.4747522811    5.0215957785
