33
-1.6661117237701137e+03 frame 63   xyz file generated by TeraChem
    Co    -0.2764080478    0.1214893681    0.1242460063
     C     2.7393700303   -0.6610366718   -0.0369901950
     O     1.7160192114   -0.0106986711   -0.2575115252
     H     2.7512688220   -1.4947562074    0.6782109392
     H     3.6667562934   -0.4042572021   -0.5650164957
     C    -1.2645961918   -1.5649328508   -2.3207284671
     O    -0.9022904191   -1.3179743652   -1.1691511994
     H    -1.4426071696   -2.6062069827   -2.6190817651
     H    -1.4169483418   -0.7691843516   -3.0627728585
     C    -1.2730059761    4.7178884768   -1.0478893229
     C     0.0158761387    4.1728765981   -1.2403488887
     C     0.2526759856    2.8588649144   -0.8688042834
     N    -0.7054145275    2.0648847648   -0.3232266943
     C    -1.9435165121    2.5890908085   -0.1306135825
     C    -2.2676953561    3.8901374857   -0.4739242733
     S    -1.7273443532    6.3500045923   -1.4699904680
     H     0.8257469728    4.7527996349   -1.6715021639
     H     1.2341288357    2.4177868506   -1.0080722830
     H    -2.6937555954    1.9372286386    0.3066523348
     H    -3.2767560855    4.2524717326   -0.3019324477
     H    -0.5288362024    6.7538917767   -1.9512119753
     C    -1.7211345932   -1.5814086548    4.4233725296
     C    -1.2723119624   -0.2468439785    4.2982240458
     C    -0.8863117733    0.2156375592    3.0511606203
     N    -0.9155484612   -0.5588594793    1.9361862677
     C    -1.3492944523   -1.8409109219    2.0522373805
     C    -1.7554936199   -2.3850337633    3.2596423023
     S    -2.2456270280   -2.3100752442    5.9208995042
     H    -1.2200155372    0.4232603871    5.1504118255
     H    -0.5359392868    1.2362927473    2.9325983587
     H    -1.3680264949   -2.4391798488    1.1470855958
     H    -2.0922211550   -3.4169325459    3.2933307622
     H    -2.0385040431   -1.2424035312    6.7260808449
