11
-2.5357882199728260e+02 frame 61   xyz file generated by TeraChem
    Fe     0.1341649756   -0.1945854267   -0.1077802592
     C     2.9321772244   -0.8754389850    0.5734312117
     N     2.1270702806    0.0101490801   -0.3125063670
     H     2.3612059887   -0.1740302060   -1.2898788809
     H     2.3612020559    0.9876013854   -0.1287227059
     H     2.6742053503   -1.9128404099    0.3529987969
     H     2.6738040645   -0.6549933589    1.6107356738
     H     4.0050590193   -0.7226781124    0.4210125790
     I    -0.0208353968   -2.1312903408   -1.9281549361
     I    -0.0208378470    1.6272735089    1.8275483696
     I    -2.4739753868   -0.2475158519   -0.0547576811
