11
-2.0569521943635941e+03 frame 45   xyz file generated by TeraChem
    Fe    -0.1296463859    0.2801391600   -0.2725020012
     S     1.5551837229   -0.3087171510    1.2814494343
     C     2.9479428243    0.2556727441    0.5033391109
     N     3.9357055741    0.6442335951    0.0099191164
     S     0.2952735368   -0.6741741395   -2.3870407282
     C     0.0602835599   -2.3187209925   -2.0660665416
     N    -0.0833436063   -3.4682766521   -1.9008919303
     S     0.1066703126    2.5953438512   -0.6381961836
     C    -1.3307859611    2.9083217539   -1.4775290600
     N    -2.3070820003    3.1760583637   -2.0642997618
    Cl    -1.9660578282   -0.5331801494    0.6708631451
