29
-1.3806078124928270e+03 frame 21   xyz file generated by TeraChem
    Cr     0.1341516515   -0.1636986682   -0.0355331026
     C     4.8241444218   -0.4576743946   -0.0071860906
     C     4.1736508394    0.4272383539   -0.8812282893
     C     2.7926122644    0.5008086346   -0.8588630932
     N     2.0503228999   -0.2654311100    0.0027603872
     C     2.6847306538   -1.1395969983    0.8459985902
     C     4.0642288079   -1.2501339590    0.8661419668
     H     5.9090355322   -0.5307417612   -0.0093151449
     H     4.7316247000    1.0545747656   -1.5700009440
     H     2.2557923624    1.1707992376   -1.5253099430
     H     2.0632563874   -1.7405756326    1.5039022011
     H     4.5351626141   -1.9445682097    1.5555101142
     C    -1.5878132850   -2.7018515393   -3.5890628892
     C    -1.2296301974   -3.3203706555   -2.3807814460
     C    -0.7346981023   -2.5431528313   -1.3488436719
     N    -0.5960217879   -1.1857088402   -1.4818461324
     C    -0.9344461383   -0.5824345293   -2.6649428138
     C    -1.4358351503   -1.3141448504   -3.7275242082
     H    -1.9777030418   -3.2949407886   -4.4128357333
     H    -1.3354847871   -4.3919652832   -2.2402407275
     H    -0.4417826088   -2.9889773502   -0.4013245367
     H    -0.8008189201    0.4933058456   -2.7398404060
     H    -1.7043230592   -0.8044242268   -4.6480937803
     S    -0.3572697195    2.1979695144   -0.3128958071
     H     0.0752450514    2.8025018138    0.8209393931
     H    -1.6795110403    2.3759001678   -0.0729091399
     S    -0.8835098525   -1.0589634740    1.9841299771
     H    -0.6445068992   -0.1732587113    2.9820950367
     H    -2.2080962181   -0.7918210473    1.8730675824
