25
-7.8247881516014127e+02 frame 46   xyz file generated by TeraChem
    Cr    -0.2670105889   -0.3058436873   -0.1366220296
     C     4.3856190440    0.5910379988    0.4358056049
     C     3.6425351140    1.2393616126   -0.5528260394
     C     2.2981592547    0.9272576241   -0.6962713703
     N     1.6909462247    0.0125842887    0.0965291472
     C     2.4042398433   -0.6095682950    1.0641289924
     C     3.7537847358   -0.3453382738    1.2549186255
     H     5.4390306208    0.8171909098    0.5688383768
     H     4.0914028214    1.9815418097   -1.2037235451
     H     1.6718727957    1.4130563561   -1.4368710544
     H     1.8580606412   -1.3090292705    1.6857340185
     H     4.2917507752   -0.8635707102    2.0411841864
     C    -0.8597518602   -3.4882518877   -3.6535334714
     C    -0.3149819881   -3.8690252575   -2.4252645905
     C    -0.1244554858   -2.9037922058   -1.4471633509
     N    -0.4518338657   -1.6064822800   -1.6523740020
     C    -0.9889638811   -1.2351299927   -2.8381165585
     C    -1.2011722540   -2.1510870627   -3.8596054646
     H    -1.0195056961   -4.2240156281   -4.4356029877
     H    -0.0442637965   -4.8990179025   -2.2208129507
     H     0.2813119836   -3.1555694381   -0.4726103072
     H    -1.2447630257   -0.1866819380   -2.9327540935
     H    -1.6328766850   -1.8147641235   -4.7958778167
     F    -0.9154246826    1.0839503761   -0.9454338590
     F    -0.4588468992   -1.1082796697    1.3904603343
