12
-1.6530416608123294e+03 frame 72   xyz file generated by TeraChem
    Mn    -0.0256468076    0.0834580074   -0.0477892164
     N     1.9347533746    0.3445426088    0.2762416589
     C     3.0476761770    0.5553740858    0.6097165823
     S     4.6043446677    0.8523635990    1.0797719125
     N     0.1866757985   -0.8139593990   -1.8346841586
     C     0.3055460742   -1.4388321479   -2.8287445463
     S     0.4708960266   -2.3190972531   -4.2186893391
     N    -1.8210553207    0.9046414177   -0.4250104051
     C    -2.8401537635    1.4838197423   -0.5565103725
     S    -4.2677995318    2.2980665572   -0.7436835102
     O    -0.3497698919   -0.1988997373    1.7414280393
     H     0.5189709643   -0.2826133081    2.1694168395
