13
-2.0683444795414389e+03 frame 43   xyz file generated by TeraChem
    Mn    -0.0065665458    0.0053356994   -0.0271209243
     N     1.8780755815   -0.2538483036    0.1512900967
     C     2.9420450310   -0.7611116498    0.3348874301
     S     4.4047908255   -1.3895048857    0.5726419540
     N    -0.2291548795   -0.8680104721   -1.7112929074
     C    -0.1883205245   -1.1097167798   -2.8789470669
     S    -0.1631555367   -1.4883122475   -4.4431505965
     N    -1.2829904750    1.3974084025   -0.3192615791
     C    -2.3137952148    1.9817861653   -0.4575548444
     S    -3.6725075214    2.8224195485   -0.6517520826
     N    -0.3844699027   -0.2804330004    1.8252642642
     C    -0.4403425761   -0.1125329005    3.0051696702
     S    -0.5456318695    0.0574937137    4.6022562747
