11
-5.1483980155038762e+02 frame 51   xyz file generated by TeraChem
    Cr     0.2363481997    0.3331972253   -0.6071740967
     C     2.9775665910   -0.3518213914    0.4514112517
     O     2.1694747464    0.0607901376   -0.3825593229
     H     2.6451419313   -0.8923577689    1.3472806985
     H     4.0466914288   -0.1757216130    0.2871220092
     C    -0.9872044129   -1.8821739321   -2.0475361177
     O    -0.1613815083   -0.9673157233   -2.0288063207
     H    -1.5855088464   -2.1344369092   -1.1621190389
     H    -1.1163724554   -2.4530452051   -2.9738671148
     F    -0.3963647131    1.7269596220   -1.3483157207
     F    -0.4136895017   -0.4109936115    0.7877101690
