16
-2.1135466461833275e+03 frame 43   xyz file generated by TeraChem
    Cr     0.1517472495    0.2440310807    0.3033503413
     C     4.8982321252   -0.2473033184   -0.1941409714
     C     4.1838474472    0.6906058522   -0.9554448013
     C     2.8180777217    0.8183124892   -0.7688727722
     N     2.1405892786    0.0671662969    0.1248083822
     C     2.8186802725   -0.8368287374    0.8656469348
     C     4.1831477814   -1.0209416091    0.7350592353
     S     6.6373979350   -0.5032766164   -0.3369054707
     H     4.6758908136    1.3227178328   -1.6866072831
     H     2.2363035574    1.5410997753   -1.3292592784
     H     2.2363623400   -1.4059749637    1.5809534854
     H     4.6802889513   -1.7587358883    1.3556546634
     H     6.8565413253    0.4209623537   -1.2940772722
    Cl    -0.4470617188   -1.2660295291   -1.2076254997
    Cl    -0.1662570635    2.4087166448    0.0044527085
    Cl    -0.1661413137   -0.0545127523    2.4672618673
