20
-1.0034305968344925e+03 frame 60   xyz file generated by TeraChem
    Co    -0.0518232311    0.2840417042   -0.2701848533
     C     3.0178488643   -0.1900283502    0.3796005007
     N     1.9414359475    0.0089593416    0.0048193027
     C     4.3700967281   -0.4407696937    0.8545114265
     H     4.3630553550   -0.5281853317    1.9458894254
     H     5.0264721868    0.3855946923    0.5642576982
     H     4.7496102494   -1.3718865141    0.4221576281
     C    -1.2166771663   -1.9629312801   -2.1876263995
     N    -0.7127012954   -1.0986877226   -1.6062991380
     C    -1.8504902283   -3.0525336801   -2.9142249605
     H    -1.0889754333   -3.6590661651   -3.4144756757
     H    -2.5402350068   -2.6503506368   -3.6628503204
     H    -2.4084489940   -3.6822567360   -2.2135475210
     C    -0.5742780063    3.1780339823   -1.4929615935
     N    -0.3107258312    2.1036244797   -1.1533911809
     C    -0.9071484776    4.5287965168   -1.9192289413
     H    -0.4762076607    4.7249105998   -2.9061698460
     H    -0.5070736631    5.2517974280   -1.2012520371
     H    -1.9947858634    4.6408566264   -1.9725594968
    Cl    -1.0334385493   -0.0038194958    1.6517437267
