31
-8.4803675617848762e+02 frame 43   xyz file generated by TeraChem
    Fe    -0.2608632074    0.1808242178    0.1962848698
     C     2.8620877202   -0.4457832099   -0.0768491563
     O     1.7149390368    0.0005964969   -0.1594907005
     H     3.1413959576   -1.1554944114    0.7131518354
     H     3.6239303926   -0.1308171932   -0.8018466823
     C    -1.2516720092   -1.6629148867   -2.2212465694
     O    -0.8751359317   -1.2218122519   -1.1323242071
     H    -1.5057100282   -0.9914824444   -3.0523530559
     H    -1.3380650787   -2.7471552186   -2.3699025641
     C    -1.4296166673    4.7236949839   -1.3127751748
     C    -0.1402857887    4.2089542332   -1.4683538424
     C     0.1417961240    2.8925641553   -1.0292517301
     N    -0.7909079015    2.0976527091   -0.4511997301
     C    -2.0414007963    2.6044430113   -0.3039581013
     C    -2.3965019246    3.9075247718   -0.7234783641
     H    -1.6732567371    5.7296124912   -1.6438535877
     H     0.6535342009    4.7934137382   -1.9251242684
     H     1.1383078958    2.4789458958   -1.1521503018
     H    -2.7862618690    1.9620001085    0.1576720694
     H    -3.4184953343    4.2471928826   -0.5807105151
     C    -1.4099290200   -1.7689893543    4.5836548111
     C    -0.9877303283   -0.4412648970    4.4944862918
     C    -0.6601429572    0.0997172645    3.2279568451
     N    -0.7340147417   -0.6170427163    2.0791153087
     C    -1.1393654733   -1.9072161025    2.1731213842
     C    -1.4864659118   -2.5142117595    3.4053058529
     H    -1.6682603121   -2.2104835071    5.5423545099
     H    -0.9008270015    0.1892008305    5.3750239729
     H    -0.3325359382    1.1325411249    3.1483968905
     H    -1.1909360633   -2.4789446828    1.2511594052
     H    -1.8015002538   -3.5540198331    3.4096686723
