37
-1.2296021877156691e+03 frame 51   xyz file generated by TeraChem
    Cr    -0.0312492114    0.0223409582   -0.0877638139
     C     4.5924401626    0.8624522692    0.3526333671
     C     4.0788583214    0.5620301827   -0.9173557889
     C     2.7266587453    0.2973071354   -1.0536062554
     N     1.8886113541    0.3168535813    0.0238948311
     C     2.3846530089    0.6176281493    1.2609620072
     C     3.7297087298    0.8895550786    1.4554767477
     H     5.6509205447    1.0741700411    0.4796746157
     H     4.7202764807    0.5327807518   -1.7927581036
     H     2.2868733728    0.0535099429   -2.0152051007
     H     1.6868563239    0.6360412554    2.0955997996
     H     4.0912639216    1.1167783529    2.4535367901
     C    -1.0805424223   -3.6389947643   -2.8820753445
     C     0.1324570666   -3.5996318833   -2.1820290265
     C     0.4368413133   -2.4799883307   -1.4240020017
     N    -0.4179826888   -1.4172548521   -1.3480114547
     C    -1.6023021556   -1.4546685105   -2.0265681265
     C    -1.9570985935   -2.5487871448   -2.7997610588
     H    -1.3396238507   -4.5071892424   -3.4823847598
     H     0.8361068299   -4.4253841602   -2.2224132214
     H     1.3665447808   -2.4107346204   -0.8664402420
     H    -2.2517179620   -0.5884607967   -1.9398901779
     H    -2.9045183634   -2.5438854391   -3.3299131892
     C    -1.6743552854    4.1928358596   -1.5679747573
     C    -1.1616658874    3.2694029334   -2.4900267874
     C    -0.7071924132    2.0432810248   -2.0344458144
     N    -0.7543579759    1.7130657667   -0.7101256552
     C    -1.2481479728    2.6139245092    0.1908657278
     C    -1.7149144452    3.8559130416   -0.2091939211
     H    -2.0352987927    5.1613105009   -1.9042313705
     H    -1.1144712574    3.4972366617   -3.5504046978
     H    -0.3034994549    1.3007293969   -2.7163053697
     H    -1.2626173860    2.3252841496    1.2383151187
     H    -2.1053792755    4.5443818443    0.5339318839
     S    -1.2080714838   -0.4374335695    2.1638068789
     H    -0.9058462066   -1.7256767283    2.4487741297
     H    -2.4955817755   -0.6838007788    1.8270062698
