15
-3.8654165547084995e+02 frame 54   xyz file generated by TeraChem
    Mn     0.0602290578   -0.4837920499    0.1353284676
     C     4.9530700163    0.3325919761    0.1348458021
     C     4.2057825774    0.5211448281   -1.0280650272
     C     2.8381829946    0.2776763821   -0.9908348873
     N     2.2063832468   -0.1352763782    0.1268715014
     C     2.9320686012   -0.3179244020    1.2493595566
     C     4.3037933123   -0.0942801438    1.2927002389
     H     6.0237262559    0.5152706921    0.1377536502
     H     4.6684372424    0.8522628746   -1.9516173649
     H     2.2140527933    0.4125863255   -1.8677362478
     H     2.3774400724   -0.6535678459    2.1200874039
     H     4.8443443760   -0.2537613423    2.2195273364
     I    -0.5712712537   -1.5975651192   -2.3857647568
     I    -1.0534609296    1.7098056398   -1.2715750563
     I    -0.7041876568   -1.3867940016    2.5115219384
