29
-8.5980948052353403e+02 frame 55   xyz file generated by TeraChem
    Ni    -0.3158643215    0.0801440025    0.0971956723
     O    -0.9096653893   -1.1357631622   -1.3002012266
     C    -1.1286177508   -2.3790379387   -1.1082292393
     C    -1.4926915728   -3.1616056172   -2.3525012376
     C    -1.0662653404   -3.0448262076    0.1300438839
     C    -0.7957659334   -2.4356696295    1.3666920523
     O    -0.5270373134   -1.1974427389    1.5405655742
     C    -0.8252412535   -3.2686217620    2.6300208687
     H    -0.6665471204   -3.1041119600   -3.0704916450
     H    -2.3643421985   -2.6988895838   -2.8283503890
     H    -1.7113872444   -4.2109394537   -2.1409959926
     H    -1.0468264464   -4.3208571132    2.4365336510
     H    -1.5786202373   -2.8626647557    3.3149182711
     H     0.1435395991   -3.1903338020    3.1360077213
     H    -1.2766372549   -4.1076472855    0.1334099775
     O     1.6031960252    0.2830185926   -0.1741075076
     C     2.1575986360    1.3809819059   -0.5109904398
     C     3.6590073657    1.3073482817   -0.6971660506
     C     1.5012027007    2.6122332573   -0.7076313306
     C     0.1252350578    2.8345828619   -0.5465961309
     O    -0.7374205913    1.9450953257   -0.2212602261
     C    -0.4358473782    4.2233248777   -0.7607810374
     H     4.1221613920    0.9585576289    0.2326483432
     H     4.0959638779    2.2683375916   -0.9786394016
     H     3.8916234188    0.5656996562   -1.4696055628
     H     0.3384097086    4.9607943777   -0.9855054285
     H    -0.9834873829    4.5351938089    0.1355936764
     H    -1.1581026867    4.1990618954   -1.5851403483
     H     2.1128996844    3.4608755245   -0.9897911323
