14
-1.6531649689638386e+03 frame 79   xyz file generated by TeraChem
    Fe     0.5459283151    0.6907385890   -0.0634072718
     S     2.1878920012    0.0871934587    1.4546949371
     C     2.8584997279   -1.2545338067    0.6710272018
     N     3.3372062932   -2.1915126214    0.1614261058
     S     0.9376095371    0.2849200148   -2.3239769323
     C     0.3028482048   -1.2697031659   -2.1140304553
     N    -0.1982496578   -2.3066059986   -1.8980143989
     S     0.2096308903    2.9826428210    0.3006850034
     C    -1.4616545144    2.7783230045    0.1325489373
     N    -2.6097795682    2.5678097443    0.0367191914
     N    -1.1881083310   -0.3583582482    0.5274865971
     H    -2.0021532307    0.2641703552    0.5220880562
     H    -1.3566633266   -1.1267920459   -0.1295494326
     H    -1.0969681773   -0.7617002126    1.4607885297
