57
-2.1431185027373731e+03 frame 53   xyz file generated by TeraChem
    Fe    -0.2441444538    0.2195078830    0.0790239125
     C     1.9110185067    0.1862866811   -0.0752058148
     N     3.0737850438    0.1670490711   -0.0845198017
     C     5.2689850195    1.0056114141   -0.9287426162
     C     4.6638213653    1.8653226189   -1.8451766890
     C     5.4606621767    2.6747835735   -2.6524239405
     C     6.8764537813    2.6293018440   -2.5468630816
     C     7.4844377924    1.7672485776   -1.6275399068
     C     6.6926448474    0.9609819218   -0.8232765029
     H     3.5835918319    1.9094952745   -1.9362151802
     H     5.0019972306    3.3471649580   -3.3705346127
     H     8.5653107217    1.7290034943   -1.5422135036
     H     7.1587112799    0.2898992202   -0.1060419842
     H     7.4815110603    3.2675356114   -3.1834325727
     C     4.5050438235    0.0755525253   -0.0057816267
     H     4.7760868232    0.2702325343    1.0401318930
     H     4.7675166014   -0.9697802899   -0.2164749626
     C    -0.8904523888   -1.3066387587   -1.2978814227
     N    -1.2082860809   -2.1515152302   -2.0312919280
     C    -2.9197006972   -3.7287384597   -2.9391351767
     C    -3.9186102731   -3.2383996085   -2.0980722632
     C    -5.1946559212   -3.7958310139   -2.1547832697
     C    -5.4809839053   -4.8532508027   -3.0584628083
     C    -4.4794887830   -5.3454277460   -3.9028233592
     C    -3.2090359997   -4.7917836806   -3.8473654668
     H    -3.7131480704   -2.4307644299   -1.4033724184
     H    -5.9806247019   -3.4228025347   -1.5056786360
     H    -4.6929432802   -6.1532595901   -4.5948155110
     H    -2.4261958245   -5.1696368049   -4.5003861287
     H    -6.4806449630   -5.2755191780   -3.0890596788
     C    -1.4983485725   -3.1997403507   -2.9687067640
     H    -1.2593809298   -2.8053495194   -3.9654228297
     H    -0.7852215051   -4.0097557930   -2.7671076831
     C    -1.7136718616    4.6614996194   -1.2205987693
     C    -1.8211345880    3.5760070198   -2.1181609161
     C    -1.3896656890    2.3239432946   -1.7299866472
     N    -0.8580619791    2.0653653525   -0.5061237294
     C    -0.7481023002    3.1125307726    0.3590496938
     C    -1.1530187448    4.3920689563    0.0500020748
     S    -2.2174295703    6.2922209356   -1.5685542011
     H    -2.2394903264    3.7054741824   -3.1107562874
     H    -1.4709193386    1.4835592138   -2.4128761895
     H    -0.3165610110    2.8964964639    1.3327320870
     H    -1.0391457215    5.1801222501    0.7874881346
     H    -2.6669608978    6.0657715299   -2.8204127213
     C    -1.5798143493   -1.1666618236    4.5351925860
     C    -2.2652089458   -0.1472682226    3.8376897793
     C    -1.8549024171    0.2038990557    2.5679439155
     N    -0.8046643820   -0.3842914265    1.9342675611
     C    -0.1467364996   -1.3706952107    2.6034424588
     C    -0.4926375423   -1.7822204534    3.8714086341
     S    -1.9795659194   -1.7126129176    6.1401271240
     H    -3.1106178883    0.3686447627    4.2805174525
     H    -2.3756513148    0.9853935026    2.0222094072
     H     0.6865207419   -1.8378488708    2.0863901618
     H     0.0759255071   -2.5733671041    4.3495532105
     H    -3.0162343482   -0.8748751211    6.3504669227
