25
-9.0153061396280054e+02 frame 76   xyz file generated by TeraChem
    Fe    -0.0867222453    0.3900521957    0.1326238114
     S     2.4186527195    0.7389942508    0.5384134607
     C     2.5458971743   -0.8414512320    1.0210691368
     N     2.5629287697   -1.9704249506    1.3686912953
     C    -1.3472459954   -1.1737741685   -2.2162838492
     N    -0.0493093115   -0.9836715606   -1.4726238756
     H     0.6681564280   -0.7156900724   -2.1547813480
     H     0.2627200679   -1.9013202329   -1.1361961115
     H    -1.6307963955   -0.2311137650   -2.6887293714
     H    -2.1245533836   -1.4812582818   -1.5139205219
     H    -1.2419240213   -1.9389479173   -2.9892223801
     C    -2.2697655662    2.4897804173   -0.1541335766
     N    -0.7688543366    2.3320693910   -0.2163141504
     H    -0.3492479631    2.9914779873    0.4487182879
     H    -0.4469435997    2.6642135134   -1.1325125806
     H    -2.6119690284    2.2695794655    0.8588379197
     H    -2.7356180325    1.8023564531   -0.8630092563
     H    -2.5549309570    3.5131019628   -0.4098803208
     C    -1.9924385089   -1.3122910695    1.8778844407
     N    -0.6647451342   -0.6017711517    1.9049280646
     H     0.0583224389   -1.2753010163    2.1803182237
     H    -0.6803848571    0.0769701226    2.6739426195
     H    -1.9710127822   -2.0827428183    1.1049835765
     H    -2.7834204348   -0.5917840970    1.6600679089
     H    -2.1960795582   -1.7846554170    2.8418628638
