41
-1.2584887130119280e+03 frame 75   xyz file generated by TeraChem
    Fe     0.0469312209   -0.0141797903    0.1281819679
     C     4.6649268662    0.4136704395   -0.4093133184
     C     3.8301677838    0.8146863247   -1.4767583881
     C     2.4594386761    0.6926592996   -1.3499187692
     N     1.8938093875    0.1900673154   -0.2167541080
     C     2.6913164480   -0.2014048381    0.8225004693
     C     4.0690476010   -0.1039646559    0.7598982604
     C     6.0791738792    0.5321337973   -0.5126311398
     H     4.2530021309    1.2191371338   -2.3912301172
     H     1.7929693655    0.9892032454   -2.1509013427
     H     2.2022759722   -0.5912682872    1.7122322311
     H     4.6725705475   -0.4219836631    1.6043659036
     N     7.2368496317    0.6292864960   -0.5994079653
     C    -1.5885559573   -3.4345637946   -2.6096549605
     C    -0.2033227645   -3.3225771117   -2.3720143020
     C     0.2722089908   -2.2656905351   -1.6168726283
     N    -0.5712771551   -1.3315523328   -1.0885805248
     C    -1.9133739215   -1.4263712673   -1.3171817670
     C    -2.4506190484   -2.4572208781   -2.0647479066
     C    -2.1093587764   -4.5079407964   -3.3858714249
     H     0.4933301933   -4.0520380940   -2.7733580718
     H     1.3309096662   -2.1525474415   -1.4184418287
     H    -2.5489482160   -0.6593640853   -0.8847423965
     H    -3.5233290147   -2.5070274125   -2.2241381026
     N    -2.5363644869   -5.3861210804   -4.0208543959
     C    -1.4269097095    4.2095182854   -1.2183457913
     C    -1.3813348401    3.1576337269   -2.1580192508
     C    -0.9569548197    1.9042380940   -1.7535268082
     N    -0.5953201478    1.6647495860   -0.4641887667
     C    -0.6262966935    2.6695962118    0.4528215914
     C    -1.0370688717    3.9464371637    0.1110081908
     C    -1.8555285537    5.5110277083   -1.6058926541
     H    -1.6771375492    3.3187161644   -3.1900797352
     H    -0.9153322510    1.0741780297   -2.4503658483
     H    -0.3212811113    2.4374696174    1.4691536306
     H    -1.0581662910    4.7257959972    0.8664362232
     N    -2.2047678862    6.5755490352   -1.9234672291
     C    -1.4531747149   -0.5493642544    2.8928317199
     O    -0.8148977778   -0.2842360985    1.8671588619
     H    -0.9404293410   -0.5878287141    3.8634520170
     H    -2.5326495744   -0.7446792596    2.8427298910
