47
-1.3001085371288318e+03 frame 40   xyz file generated by TeraChem
    Fe    -0.2210587983    0.0109932047   -0.0821249992
     C     4.3888255888    0.7314969478   -0.5418109408
     C     3.5063208502    0.7843948862   -1.6411907133
     C     2.1599122291    0.5413283699   -1.4367498428
     N     1.6609765326    0.2657105021   -0.1985431351
     C     2.5027261314    0.2083762797    0.8670949012
     C     3.8625980854    0.4329472143    0.7295932431
     C     5.7828474103    0.9700095897   -0.7173585341
     H     3.8694315193    1.0050547720   -2.6400044716
     H     1.4606772968    0.5618141603   -2.2679634975
     H     2.0717693571   -0.0287373251    1.8306344230
     H     4.5068013856    0.3759947973    1.6012313584
     N     6.9211767306    1.1658976581   -0.8614553806
     C    -1.0601726259   -3.2291125402   -3.4468775982
     C     0.1261442767   -3.3539671782   -2.6914144949
     C     0.3965397006   -2.4281477200   -1.7001110950
     N    -0.4513630061   -1.3988017464   -1.4254086105
     C    -1.6000013652   -1.2773411802   -2.1519594515
     C    -1.9344219553   -2.1610988091   -3.1627658686
     C    -1.3659572877   -4.1656881699   -4.4761021283
     H     0.8220427148   -4.1645597997   -2.8827234615
     H     1.2983525120   -2.4949162220   -1.1013958241
     H    -2.2565647458   -0.4416380444   -1.9165796164
     H    -2.8543436492   -2.0264995984   -3.7222807680
     N    -1.6147177279   -4.9325932920   -5.3160924518
     C    -2.2114189175    4.2653244010    0.1444481761
     C    -0.8811680858    4.1559401188   -0.2760537516
     C    -0.2655882643    2.9134210083   -0.2548785633
     N    -0.9221087839    1.7973595337    0.1684115398
     C    -2.2158494736    1.9054810589    0.5894828287
     C    -2.8874158962    3.1179485634    0.5790383222
     H    -2.7129682274    5.2292910238    0.1382456418
     H    -0.3228188638    5.0228927645   -0.6149736652
     H     0.7633596634    2.7873179417   -0.5688776490
     H    -2.7021473644    0.9997202607    0.9406956755
     H    -3.9188064990    3.1614681451    0.9144761955
     C    -1.0982354371   -1.8192150440    4.1400670448
     C    -1.2011279805   -2.5884251931    2.9781689459
     C    -0.9125820696   -2.0065475642    1.7506783459
     N    -0.5443870801   -0.6984741040    1.6557496884
     C    -0.4382185694    0.0565277267    2.7849078584
     C    -0.7079993948   -0.4778477663    4.0355673602
     H    -1.3140882444   -2.2556505431    5.1115321240
     H    -1.4964973597   -3.6325540087    3.0120481810
     H    -0.9706407593   -2.5748368723    0.8307936651
     H    -0.1376502636    1.0900248407    2.6620225126
     H    -0.6152778074    0.1548491459    4.9130249323
