53
-1.2922597497208601e+03 frame 121   xyz file generated by TeraChem
    Co     0.2676115700   -0.2639750138   -0.2814766992
     N    -0.6180380327   -1.5906078708   -1.5782993856
     N    -1.1083492678   -1.1263637209    0.9807309194
     C    -0.3196160884   -1.7756169178   -2.8714513804
     H     0.4819582953   -1.1683167129   -3.2818347483
     C    -0.9925949932   -2.6994698229   -3.6842377288
     H    -0.7008255177   -2.7960077911   -4.7257199153
     C    -2.0310303054   -3.4807628964   -3.1526628985
     C    -2.3354769824   -3.2738428635   -1.7956368712
     H    -3.1366112176   -3.8505586560   -1.3483835921
     C    -2.8788198718   -2.7615973923    1.1328416521
     H    -3.4911236836   -3.5178517575    0.6564361085
     C    -3.0913358427   -2.4797014245    2.4922985954
     C    -2.2672919292   -1.4932063877    3.0607130328
     H    -2.3677663020   -1.2191532465    4.1068634185
     C    -1.2996409361   -0.8479667473    2.2780921331
     H    -0.6625082600   -0.0847945790    2.7155098140
     C    -1.6253574725   -2.3378019411   -1.0253945151
     C    -1.8931741387   -2.0840597869    0.3943134802
     C    -4.1402730353   -3.1859092544    3.2968286714
     C    -2.7642173536   -4.4940886746   -3.9780162650
     H    -2.7911521155   -4.2093906489   -5.0332523622
     H    -3.7880526817   -4.6419956594   -3.6238975506
     H    -2.2507819372   -5.4640548071   -3.9150699719
     H    -4.6402892234   -3.9690260106    2.7233903107
     H    -4.8995789241   -2.4719153940    3.6406212444
     H    -3.7000079211   -3.6364014084    4.1942255627
     N     2.2950840696   -0.0782957211    0.0233530744
     N     0.4795519532    1.7649213624   -0.5629642871
     C     3.1630304280   -1.0556750822    0.3209518435
     H     2.7562423109   -2.0589954827    0.4035268580
     C     4.5313374238   -0.8257422097    0.5200157506
     H     5.1781460418   -1.6651968915    0.7578625669
     C     5.0502662593    0.4757932468    0.4122559552
     C     4.1300647453    1.4895566896    0.0981221277
     H     4.4906409639    2.5068662045    0.0040016422
     C     2.0665304047    3.5850455614   -0.5832004926
     H     3.0858072195    3.9332342507   -0.4668103466
     C     1.0672840793    4.5201153025   -0.8993509588
     C    -0.2367402905    4.0154168590   -1.0405503459
     H    -1.0651239725    4.6737494541   -1.2854733053
     C    -0.4836805842    2.6467668890   -0.8654740724
     H    -1.4894373340    2.2516450521   -0.9720683352
     C     2.7667690246    1.2030349071   -0.0916112621
     C     1.7632878451    2.2218844523   -0.4194724339
     C     1.3681048292    5.9776907219   -1.0759737784
     C     6.5055143339    0.7615835009    0.6284740321
     H     7.1250849999    0.1230609496   -0.0121697602
     H     6.7852710138    0.5362870138    1.6656442994
     H     6.7541848822    1.8050986830    0.4251370926
     H     2.4332124223    6.1936036693   -0.9712678778
     H     0.8200536526    6.5725813125   -0.3343988845
     H     1.0375225361    6.3214950172   -2.0634677549
