37
-1.3217495260494459e+03 frame 55   xyz file generated by TeraChem
    Cr     0.2251784742   -0.1086975773    0.0394867906
     S     2.4280043893    0.3980558018   -0.2873601045
     C     2.5078596291    2.0794775824   -0.4424594907
     N     2.5410417598    3.2411713451   -0.5542795414
     C    -1.8177117800   -3.3724863844   -2.8396758733
     C    -0.5971069253   -3.5883015171   -2.1951321760
     C    -0.1084300506   -2.6051046186   -1.3462307665
     N    -0.7753660834   -1.4437442601   -1.1272099899
     C    -1.9599741694   -1.2347416265   -1.7522246050
     C    -2.5079443450   -2.1784734369   -2.6106632752
     H    -2.2247742573   -4.1231781149   -3.5104084369
     H    -0.0285394223   -4.4998545977   -2.3447561245
     H     0.8388176748   -2.7420313602   -0.8269336080
     H    -2.4620136382   -0.2932645195   -1.5543570143
     H    -3.4583892656   -1.9760028808   -3.0929446875
     C    -1.4120849431    4.1528828698   -1.3316537429
     C    -0.8762108700    3.2749337997   -2.2778614133
     C    -0.4398713175    2.0250186762   -1.8659237535
     N    -0.5330515861    1.6327062891   -0.5701870142
     C    -1.0580343772    2.4792531584    0.3517107737
     C    -1.5062282315    3.7443417602    0.0011797967
     H    -1.7445597678    5.1432700389   -1.6275076065
     H    -0.7796603251    3.5561144245   -3.3210360876
     H     0.0107132117    1.3239746319   -2.5606848250
     H    -1.1106230722    2.1277435379    1.3769350779
     H    -1.9148833002    4.3965422118    0.7655251620
     C    -1.4697522013   -1.3109752993    4.3907909717
     C    -2.2275787386   -1.6453607027    3.2644799742
     C    -1.7566444198   -1.2980787998    2.0072291825
     N    -0.5828676857   -0.6373405290    1.8370160231
     C     0.1510911371   -0.3085234432    2.9357893647
     C    -0.2605425656   -0.6316160463    4.2204490499
     H    -1.8158519370   -1.5761912749    5.3853265991
     H    -3.1716256202   -2.1716803524    3.3569011080
     H    -2.3115841378   -1.5439118131    1.1092902867
     H     1.0864974556    0.2163592516    2.7623728333
     H     0.3593867602   -0.3553887083    5.0666663329
