13
-8.4172299755307915e+02 frame 62   xyz file generated by TeraChem
    Ni     0.0490891892    0.0433854653   -0.0233338941
     O     1.5995975945   -0.8193590335    0.6481316971
     N     3.4623452145   -1.8725508446   -0.5102658808
     C     2.5329991470   -1.3549010310    0.0025785961
     O     0.3145215366   -0.8088930143   -1.7021787254
     N    -1.1578322019   -0.9905602052   -3.6314007909
     C    -0.4829513627   -0.8700556005   -2.6700427605
     O    -1.5132078626    0.8829243280   -0.6887533044
     N    -3.1111302725    2.3588968845    0.4021862136
     C    -2.3068201578    1.6396240576   -0.0768905693
     O    -0.1568122860    0.9546161134    1.6301972206
     N     0.5421286536    0.2750598974    3.8605795617
     C     0.2277636121    0.5616649505    2.7591278362
