11
-1.6965857022341786e+03 frame 66   xyz file generated by TeraChem
    Fe     0.1020224433    0.2577341452   -0.2128135450
     S     2.2067537117   -0.2374823766    0.7809553740
     C     3.2765749528    0.1378934056   -0.4741665101
     N     4.0552238222    0.3973791092   -1.3086767108
     S    -0.1958466401   -0.7901930578   -2.3079258312
     C    -0.6970385121   -2.3237536827   -1.7927759637
     N    -1.0414511648   -3.3996731788   -1.4875810047
     S     0.3029784798    2.5852038732   -0.6429919024
     C    -1.3197921978    2.9596460367   -0.9529805378
     N    -2.4277260632    3.2654038599   -1.1733083641
     F    -1.0837919928   -0.2177785794    0.9779393582
