13
-8.4066413279771120e+02 frame 23   xyz file generated by TeraChem
    Cr     0.1836798409   -0.2001659431   -0.2233853811
     C    -1.7135355630   -2.0855669382   -1.0116897151
     O    -0.8727147244   -1.2401544520   -1.5387838230
     C    -1.7042210003   -2.0946818017    0.5651480753
     O    -2.4459975744   -2.8483749111    1.1944338476
     O    -0.8567551902   -1.2557925419    1.0920450658
     O    -2.4689169985   -2.8257922034   -1.6408094154
     C     2.6123063669    1.1563038608   -0.0115856579
     O     2.1290784460   -0.0488087119    0.1042961562
     C     1.5402313299    2.2285474627   -0.4332952111
     O     1.8613167064    3.4007538019   -0.6257399187
     O     0.3352323830    1.7452947499   -0.5501470138
     O     3.7843598531    1.4774025475    0.1817630292
