14
-1.7327357389297074e+03 frame 41   xyz file generated by TeraChem
    Co     0.5638297358   -0.2687300742    1.0141421588
     N     2.1298829968    0.0067404237    0.1749086624
     C     2.6772254500    0.3318956912   -0.8485542937
     S     3.4856620555    0.7442517217   -2.1525884588
     N    -0.2359268784   -1.4600772544   -0.1209973955
     C    -0.2527003845   -1.5421290611   -1.3283002426
     S    -0.3571707925   -1.7641797424   -2.8970544129
     N    -0.2607589227    1.3401888823    0.7700999621
     C    -0.3551321985    2.0830963492   -0.1794301404
     S    -0.5600142935    3.1456663129   -1.3427018069
     C    -1.9418019491   -0.8148120073    2.2661043994
     O    -0.7404630148   -0.7549778704    2.4820071835
     H    -2.6252796064   -1.0713931850    3.0869922969
     H    -2.3548464770   -0.6208881339    1.2683691695
