101
-2.0711730058044409e+03 frame 139   xyz file generated by TeraChem
    Co    -0.0099383263    0.0108340387    0.0116197978
     C     2.0066065296   -0.1184728135    0.2560706928
     N     3.1644498447   -0.1790867614    0.3951574397
     C     4.5311639276   -0.2451950437    0.5599571561
     C     5.3118456199    0.9077278271    0.3415742418
     C     6.6803796714    0.8239364453    0.5097072071
     C     7.3206502376   -0.3877032636    0.8921950906
     C     8.8318213537   -0.4247998262    1.0599261408
     C     9.4976198431    0.0116303466   -0.2792984867
     C     9.2340620753    0.5900315200    2.1730160422
     C     9.3590931041   -1.8177361472    1.4476535289
     C     6.4978194097   -1.5215381118    1.1030898501
     C     5.1237504586   -1.4646795887    0.9439742922
     H     4.8396356273    1.8392886822    0.0482871817
     H     7.2772499715    1.7131104958    0.3421390512
     H     9.2365096336   -0.6736598195   -1.0922220359
     H    10.5847428438   -0.0046389514   -0.1538587703
     H     9.2143194377    1.0259355189   -0.5753472290
     H     8.7981442718    0.3107581530    3.1377130435
     H     8.9284629149    1.6141384077    1.9379248644
     H    10.3238761199    0.5842032171    2.2749473247
     H     8.9582622396   -2.1568540376    2.4092524455
     H    10.4470729567   -1.7756872090    1.5487596189
     H     9.1341601472   -2.5721983516    0.6854318435
     H     6.9454647397   -2.4624215297    1.3974069943
     H     4.5063322627   -2.3413719873    1.1096159342
     C    -0.5895502831   -1.3741274493   -1.3587454375
     N    -0.9010423687   -2.1688454701   -2.1557901408
     C    -1.2615662497   -3.1070173410   -3.0983814355
     C    -2.6254447862   -3.3148052028   -3.3870570450
     C    -2.9659258360   -4.2606123455   -4.3347415414
     C    -1.9838908502   -5.0233345666   -5.0263196871
     C    -2.4139786844   -6.0537898644   -6.0583037168
     C    -3.2969381117   -7.1265056849   -5.3496116547
     C    -3.2657236004   -5.3495007783   -7.1561943208
     C    -1.2239406997   -6.7596628112   -6.7324134392
     C    -0.6251627835   -4.7812830741   -4.7058276260
     C    -0.2565160515   -3.8422716850   -3.7582264915
     H    -3.3867950413   -2.7399098240   -2.8706602196
     H    -4.0156871806   -4.4196608561   -4.5530006661
     H    -2.7334982103   -7.6453495683   -4.5675825896
     H    -3.6123484704   -7.8645888327   -6.0935065694
     H    -4.1982316369   -6.6958941341   -4.9030982817
     H    -2.6824581235   -4.5818018540   -7.6747029764
     H    -4.1704475967   -4.8859223315   -6.7520020858
     H    -3.5768914051   -6.0983199372   -7.8909650332
     H    -0.5819217990   -6.0574499274   -7.2760634833
     H    -1.6000671712   -7.4830352229   -7.4611676765
     H    -0.6109098405   -7.3155454251   -6.0142141457
     H     0.1536755887   -5.3396112923   -5.2097004454
     H     0.7881422351   -3.6675524104   -3.5231953224
     C    -0.5042733986    1.8843748441   -0.6216208962
     N    -0.8059180105    2.9520681990   -0.9847962934
     C    -1.1689685297    4.2105168673   -1.4157119923
     C    -1.9619401414    5.0255232134   -0.5836608481
     C    -2.3223997498    6.2809687189   -1.0340205789
     C    -1.9166547284    6.7704468178   -2.3062912983
     C    -2.3510413746    8.1569347427   -2.7554070974
     C    -3.9087529302    8.2017268030   -2.7911446702
     C    -1.8415626945    9.2068822473   -1.7237411953
     C    -1.8149098079    8.5329075651   -4.1483250042
     C    -1.1183174582    5.9195414080   -3.1089432528
     C    -0.7435961918    4.6565814500   -2.6826617687
     H    -2.2810300133    4.6662927493    0.3889068108
     H    -2.9344797693    6.9055426784   -0.3935729903
     H    -4.3081397156    7.4711309893   -3.5019899191
     H    -4.2227602965    9.1995098061   -3.1132318356
     H    -4.3577954907    8.0136670945   -1.8109180782
     H    -0.7475034904    9.2201724619   -1.6832363669
     H    -2.2229059895    9.0248162936   -0.7143282027
     H    -2.1848050555   10.1990776125   -2.0329171979
     H    -0.7197106115    8.5522333032   -4.1776190326
     H    -2.1628813620    9.5363288854   -4.4088199693
     H    -2.1768269577    7.8536237339   -4.9282301943
     H    -0.7868002630    6.2551110999   -4.0836113961
     H    -0.1334285338    4.0146059307   -3.3093666798
     C    -0.9438212067   -0.3624050845    1.7805677081
     N    -1.4781293322   -0.5897038548    2.7937484015
     C    -2.1101521482   -0.8605717879    3.9879724060
     C    -1.6276765398   -0.2788463031    5.1776279118
     C    -2.2742930382   -0.5639840098    6.3647443882
     C    -3.4080744038   -1.4219423543    6.4195426855
     C    -4.0818606705   -1.7031437301    7.7538916967
     C    -3.0406572942   -2.3643486287    8.7073524712
     C    -4.5460364378   -0.3533735192    8.3789951127
     C    -5.2996655354   -2.6349214618    7.6247375791
     C    -3.8592391230   -1.9848352331    5.2001848125
     C    -3.2293299280   -1.7168964951    3.9972157166
     H    -0.7646144317    0.3779841801    5.1536024379
     H    -1.8994924562   -0.1161910931    7.2779475778
     H    -2.6995860948   -3.3262363884    8.3113136297
     H    -3.5165353135   -2.5408324731    9.6769584554
     H    -2.1667775505   -1.7280935240    8.8759769102
     H    -5.2730481646    0.1514200928    7.7345519271
     H    -3.7133124290    0.3311289003    8.5660115601
     H    -5.0271733588   -0.5597205073    9.3401087113
     H    -6.0838310639   -2.2027150748    6.9929807786
     H    -5.7368019886   -2.7985862952    8.6137135112
     H    -5.0273922213   -3.6186595520    7.2263891463
     H    -4.7179444459   -2.6442055596    5.1974997138
     H    -3.5863131321   -2.1550921380    3.0711472236
