40
-1.0001575064874116e+03 frame 95   xyz file generated by TeraChem
    Fe    -0.1160984176    0.0756177528   -0.0066201976
     C     2.9787937056    0.6310623368   -0.4910417209
     N     1.8456108409    0.4203456139   -0.3153912038
     C     4.3840141750    0.8921335600   -0.7082522632
     H     4.9240651061    0.8322619700    0.2460474395
     H     4.5130326610    1.8961254005   -1.1341263603
     H     4.7967117007    0.1493608730   -1.4039119108
     C    -1.1989603201   -3.9037109375   -2.4115961354
     C    -0.0153815445   -3.8087084375   -1.6672012632
     C     0.2522282986   -2.6367091840   -0.9800924249
     N    -0.6075794569   -1.5764310922   -1.0110352403
     C    -1.7593235431   -1.6663992958   -1.7366134200
     C    -2.0806406807   -2.8143725146   -2.4425623181
     H    -1.4307984097   -4.8130519733   -2.9596739527
     H     0.6908135587   -4.6316584945   -1.6201845741
     H     1.1583306327   -2.5218629805   -0.3922046125
     H    -2.4140958954   -0.8010257120   -1.7408746555
     H    -3.0055039812   -2.8534069083   -3.0094336551
     C    -2.5535690709    3.8093613964   -1.7040434306
     C    -1.5652320223    3.1789803864   -2.4727360887
     C    -0.8933322956    2.0921077862   -1.9397454394
     N    -1.1699098379    1.6227469140   -0.6873292034
     C    -2.1310073497    2.2357634404    0.0620113419
     C    -2.8371123339    3.3261164803   -0.4192018156
     H    -3.0944177579    4.6644992751   -2.1006608265
     H    -1.3188287360    3.5253398966   -3.4714638269
     H    -0.1207369224    1.5763187276   -2.5032429211
     H    -2.3196981606    1.8332562530    1.0516333144
     H    -3.5960370143    3.7903078934    0.2028079893
     C    -0.8009433525   -0.5361595699    4.6756178142
     C    -1.3896527663   -1.4268075229    3.7675948954
     C    -1.1875638170   -1.2371747435    2.4104846487
     N    -0.4318685244   -0.2028987775    1.9399364675
     C     0.1422115042    0.6658023265    2.8242458052
     C    -0.0236105374    0.5252006665    4.1916844276
     H    -0.9452163766   -0.6672452994    5.7447443224
     H    -1.9967072117   -2.2599301418    4.1075841002
     H    -1.6203289519   -1.9064959968    1.6747290056
     H     0.7373424777    1.4744940606    2.4091535544
     H     0.4478744067    1.2336817132    4.8654117964
