21
-1.4844376535351062e+03 frame 72   xyz file generated by TeraChem
    Mn    -0.1509981980    0.1253929114    0.0604096911
     O     2.1267256210    0.1172334193    0.0518189905
     C     2.9472256435   -0.6917747613    0.8201415025
     C     4.2406494578   -0.4495617189    0.5030611560
     C     4.2405253299    0.5688679931   -0.5153163029
     C     2.9470117149    0.8857641228   -0.7572472761
     H     2.4311768015   -1.3298154804    1.5198019748
     H     5.1029923509   -0.9296821664    0.9438072037
     H     2.4306384173    1.5853345607   -1.3951110507
     H     5.1027087418    1.0097196751   -0.9956347381
     O    -0.8761064850   -1.3524583820   -1.4171713911
     C    -1.0899667736   -2.7022317256   -1.1869276222
     C    -1.4245917220   -3.3043950323   -2.3516889706
     C    -1.4253146684   -2.2852274601   -3.3697426716
     C    -1.0910431378   -1.1208761898   -2.7666054620
     H    -0.9745654979   -3.0167539023   -0.1612582989
     H    -1.6537339547   -4.3528084449   -2.4805348148
     H    -0.9767886719   -0.0947549576   -3.0800719513
     H    -1.6549192946   -2.4130929153   -4.4181762307
    Cl    -0.4595476967    2.0800707562   -1.0290440889
    Cl    -0.4597852527   -0.9643542479    2.0147667573
