47
-1.9121175975156555e+03 frame 70   xyz file generated by TeraChem
    Fe    -0.0616907681    0.0243250203    0.0842300929
     C     4.6608659862    1.1274386522    0.3761990012
     C     3.7950642706    1.9798566561   -0.3142483066
     C     2.4461212264    1.6600043516   -0.3779217323
     N     1.9318286318    0.5511295355    0.2116606340
     C     2.7790710851   -0.2697281613    0.8869910462
     C     4.1395890226   -0.0178850890    0.9864632882
     H     5.7217605271    1.3511742224    0.4388872991
     H     4.1591114726    2.8795259286   -0.7990931437
     H     1.7465876834    2.2990204194   -0.9061089149
     H     2.3382603223   -1.1442761923    1.3573283730
     H     4.7767683638   -0.7044844495    1.5339529737
     C    -0.6526957252   -3.4573201418   -3.2456762204
     C     0.6279396153   -3.1144024882   -2.8042730267
     C     0.7654926722   -2.1141385389   -1.8513726947
     N    -0.3018258825   -1.4516872803   -1.3353164389
     C    -1.5450072809   -1.7862174349   -1.7729834485
     C    -1.7567775180   -2.7791046031   -2.7178348667
     H    -0.7893201315   -4.2378493534   -3.9884010493
     H     1.5100549489   -3.6141871427   -3.1906008972
     H     1.7445691200   -1.8208917651   -1.4863586679
     H    -2.3783419895   -1.2333149463   -1.3478247027
     H    -2.7671487605   -3.0134483114   -3.0364084337
     C    -2.5613407841    3.8869465832   -1.5652131181
     C    -1.7212287504    3.1169741671   -2.4044294193
     C    -1.0350772076    2.0449736210   -1.8680629229
     N    -1.1176765854    1.6863166008   -0.5562978756
     C    -1.9294514111    2.4229070365    0.2482790482
     C    -2.6548050857    3.5082611233   -0.2033032454
     S    -3.4873353861    5.2620572322   -2.0883948547
     H    -1.6072149572    3.3443432663   -3.4594698665
     H    -0.3968880243    1.4351291181   -2.5011056999
     H    -1.9944480659    2.1216559023    1.2886719004
     H    -3.2830761192    4.0581117038    0.4907273937
     H    -3.1076589516    5.2507795014   -3.3858308540
     C    -1.3688391811   -1.5447833711    4.5077609286
     C    -0.7459980125   -0.2857175443    4.3314972697
     C    -0.4112596394    0.1266996497    3.0568534135
     N    -0.6542679862   -0.6209134781    1.9441602186
     C    -1.2503475929   -1.8330187362    2.1128167934
     C    -1.6162170890   -2.3239582711    3.3506973541
     S    -1.8497182356   -2.2037233628    6.0425574431
     H    -0.5189382478    0.3596452719    5.1739145276
     H     0.0831107438    1.0820229386    2.9057157044
     H    -1.4332453846   -2.4183627489    1.2173743915
     H    -2.0881487536   -3.2993154090    3.4203449584
     H    -1.4337935658   -1.1772645883    6.8178952980
