21
-1.3186816996711184e+03 frame 65   xyz file generated by TeraChem
    Co    -0.0332232299    0.4638744811    0.1534368455
     S     2.2688480864    0.1033411132   -0.6816895660
     C     1.9930640999    0.8524799381    0.7785246284
     N     1.4171791283    1.3232137256    1.7072884909
     S    -1.5313835839   -0.1758691562   -1.3433404693
     C    -1.7372276464   -1.8304591190   -1.1087452757
     N    -1.8547463625   -2.9772301284   -0.9051713743
     C    -1.2931305360    3.1076869365   -0.0336040796
     N    -0.1727416620    2.3048301865   -0.6133242786
     H     0.7105608716    2.7699618097   -0.3909488767
     H    -0.2312893613    2.2965191029   -1.6340938367
     H    -1.1745854231    3.1351969698    1.0516369020
     H    -2.2469847795    2.6423347932   -0.2882532208
     H    -1.2750181287    4.1299278467   -0.4220381169
     C    -1.0693386504   -1.1028010730    2.3340803402
     N    -0.0652768571   -1.1940487970    1.2302038869
     H    -0.2452425014   -2.0291753486    0.6662572607
     H     0.8643130182   -1.3135102268    1.6394457319
     H    -2.0713561128   -1.0377680350    1.9060225072
     H    -0.8551497851   -0.2136997090    2.9309581841
     H    -1.0130301265   -1.9873357127    2.9750285615
