31
-2.3983051132566720e+03 frame 78   xyz file generated by TeraChem
    Fe    -0.0145283579   -0.1299613935    0.2062705310
     S     2.2605356774   -0.4637057571    0.6049454752
     C     2.7556090165    0.0216964027   -0.9341838889
     N     3.0675393364    0.4028312193   -1.9961659633
     S    -0.7295376590   -1.6974168744   -1.3572838253
     C    -0.4493119145   -3.0129970812   -0.3341714835
     N    -0.2983561602   -3.8989787241    0.4156314859
     C    -1.3968491274    4.0756113080   -1.7522153901
     C    -0.0908064973    3.5940961808   -1.9592289635
     C     0.3007392487    2.4046212156   -1.3747564156
     N    -0.5297056532    1.6676689591   -0.5945621800
     C    -1.7931491715    2.1259594810   -0.3945492351
     C    -2.2563641160    3.3025822611   -0.9426209981
     S    -2.0181135729    5.5615969164   -2.4374599679
     H     0.6219835936    4.1320231351   -2.5749949070
     H     1.2984311246    2.0121669345   -1.5428962952
     H    -2.4390203629    1.5128309083    0.2262364408
     H    -3.2767576135    3.6159902600   -0.7489028196
     H    -0.8970017547    5.9179871274   -3.0971130451
     C    -1.9360508591   -0.7323352027    4.6117155116
     C    -0.9441870260    0.2323642068    4.3430510465
     C    -0.4604075200    0.3652852903    3.0572921792
     N    -0.9009123645   -0.3939104772    2.0208766003
     C    -1.8537326765   -1.3275319457    2.2762034625
     C    -2.3880797737   -1.5198158983    3.5334103781
     S    -2.6317407664   -1.0128686554    6.1926197862
     H    -0.5461805595    0.8696838031    5.1252910924
     H     0.3129829739    1.0944523982    2.8327263994
     H    -2.1718277639   -1.9381269835    1.4399636615
     H    -3.1424582177   -2.2863871741    3.6757868508
     H    -1.9072112416   -0.0890465652    6.8566761157
