37
-1.3587639632328248e+03 frame 15   xyz file generated by TeraChem
    Fe     0.1092478042    0.0293257484   -0.0730093801
     N     1.8674736061    0.2951269648   -0.3751958550
     C     3.0035105608    0.6616368909   -0.6620899557
     S     4.4820994027    1.0999400682   -1.0197469626
     C    -1.9133159128   -3.2587039939   -2.8373295758
     C    -0.6364449069   -3.4280496785   -2.2772401572
     C    -0.1133965528   -2.4233009100   -1.4589760350
     N    -0.8116547729   -1.2790639932   -1.1954069159
     C    -2.0523915152   -1.1093310607   -1.7376042436
     C    -2.6289013977   -2.0814841797   -2.5601736889
     H    -2.3432233626   -4.0303744627   -3.4801829172
     H    -0.0425518979   -4.3239154130   -2.4680293574
     H     0.8781005443   -2.5105228836   -1.0090864851
     H    -2.5717607812   -0.1784438171   -1.5028258328
     H    -3.6236498821   -1.9093083715   -2.9759168232
     C    -1.7140032509    4.2881132009   -1.0267464649
     C    -1.3049207436    3.4237768662   -2.0566489032
     C    -0.8384327345    2.1483269784   -1.7305321115
     N    -0.7727304015    1.7189962191   -0.4343428563
     C    -1.1634585616    2.5579684296    0.5695367100
     C    -1.6400107193    3.8443836655    0.3034907501
     H    -2.0805056147    5.2911208668   -1.2574447944
     H    -1.3389232548    3.7280116247   -3.1045931579
     H    -0.4981100525    1.4484773434   -2.4962225127
     H    -1.0825840583    2.1761900754    1.5868051176
     H    -1.9444622840    4.4819414299    1.1357294207
     C    -1.2455064706   -1.2999326336    4.2763532726
     C    -2.1740535958   -1.3541203098    3.2228916148
     C    -1.7809297283   -0.9510694926    1.9444133928
     N    -0.5174375702   -0.4992195701    1.6957101077
     C     0.3905023266   -0.4433500088    2.7174308563
     C     0.0548426005   -0.8382147259    4.0150688537
     H    -1.5301089827   -1.6144799386    5.2831178082
     H    -3.1940935387   -1.7094384256    3.3814525296
     H    -2.4687873428   -0.9924848525    1.0984306269
     H     1.3870551374   -0.0760159878    2.4664034340
     H     0.8101010971   -0.7813281512    4.8013020157
