8
-5.3751683600320564e+02 frame 19   xyz file generated by TeraChem
    Fe     0.4598146741    0.7321404110   -0.5904913219
     C     2.6024903519   -0.8118609352    0.5614757765
     O     2.3146604048   -0.1686306300   -0.4468266086
     H     1.8667616979   -0.9532984183    1.3686265990
     H     3.6135400890   -1.2413688560    0.6563478403
     F    -0.0689276448   -0.4152635313   -1.7615035279
     F     0.1481965840    2.3968740373   -0.8831865420
     F     0.1682544082    0.4618128837    1.0950847813
