13
-1.7420516816944032e+03 frame 68   xyz file generated by TeraChem
    Co    -0.0115668494   -0.1114143819   -0.0276666831
     S     2.4300413012    0.1277016618   -0.4092446075
     H     2.8576030564    0.7680344750    0.7030653708
     H     2.9015231250   -1.0835501664   -0.0322434328
     S    -0.7334002715   -1.7975182853   -1.7086010444
     H    -2.0702490214   -1.6009786476   -1.7803148394
     H    -0.4667746118   -1.1822321214   -2.8838243588
     S    -1.1902944328    2.0399472615   -0.3648438201
     H    -0.5926169103    2.8696929863    0.5210221577
     H    -0.5548170758    2.5508441567   -1.4447744594
     S    -0.4564034297   -1.2004723102    2.1562173707
     H    -1.8075866939   -1.2010609022    2.2309212865
     H    -0.2977039043   -0.1911735419    3.0430158565
