17
-1.4577308780657102e+03 frame 40   xyz file generated by TeraChem
    Cr    -0.3492291976   -0.4349106905    0.1291590193
     P     2.2053858807   -0.2156049441    0.4309685408
     H     2.6065771072    0.8523563813    1.2555492215
     H     2.7024303348   -1.3943659828    1.0256071318
     H     2.8902013068   -0.0613723924   -0.7898549732
     P    -0.5761295670   -1.7084567443   -2.1963404642
     H     0.1917632197   -1.2637776523   -3.2890389525
     H    -0.2344156086   -3.0702849213   -2.0545600225
     H    -1.9007488616   -1.7323500545   -2.6798496649
     P    -0.8449495081    1.8695009847   -0.9238418141
     H    -0.1507712463    2.1186728202   -2.1227976902
     H    -2.2199593299    1.9542616582   -1.2274270667
     H    -0.5571911047    2.9443487609   -0.0606141941
     P    -0.8350207038   -0.0080847905    2.7091323683
     H    -0.3395214052    1.1686426956    3.3018245901
     H    -2.2243343140    0.0291095943    2.9543678918
     H    -0.3643664461   -1.0477357040    3.5376424149
