38
-2.1622855116995042e+03 frame 38   xyz file generated by TeraChem
    Fe     0.0835603922    0.2499912298   -0.3392492423
     C     4.7937160311   -0.3810391507    0.4929379863
     C     4.3712103234    0.2938950378   -0.6754852990
     C     3.0246648370    0.4676615957   -0.9093158232
     N     2.0621119123    0.0120975818   -0.0628802957
     C     2.4632713602   -0.6307652362    1.0725980812
     C     3.7893704288   -0.8438909199    1.3741150749
     S     6.4562904503   -0.6699909087    0.9177345975
     H     5.0859682379    0.6837921859   -1.3923039255
     H     2.6879993244    0.9940290565   -1.7977009920
     H     1.6782025958   -0.9596366075    1.7451320086
     H     4.0458732858   -1.3605046264    2.2933330299
     H     7.0116503021   -0.0673140603   -0.1542628935
     C    -1.9468577543   -3.2572768622   -2.9586458482
     C    -0.7948189574   -2.5995031438   -3.4484038190
     C    -0.2164108401   -1.5963663070   -2.7015650496
     N    -0.7067949107   -1.1953971667   -1.4984951270
     C    -1.8111960247   -1.8343591653   -1.0133074791
     C    -2.4445657503   -2.8444286797   -1.7015357170
     S    -2.7795484105   -4.5369476417   -3.7943014884
     H    -0.3517384521   -2.8703363229   -4.4008804519
     H     0.6746350871   -1.0915610430   -3.0630419287
     H    -2.1656716355   -1.5132730291   -0.0398731537
     H    -3.3191130513   -3.3146548168   -1.2639204630
     H    -1.9751788100   -4.5810867424   -4.8767580169
     C    -1.3526775111    4.7173643975   -1.4301613185
     C    -0.8218092527    3.8910196955   -2.4477387130
     C    -0.4082518779    2.6141054497   -2.1377717230
     N    -0.4809669686    2.0982723267   -0.8817098134
     C    -1.0031525535    2.8858898073    0.1041674607
     C    -1.4358495472    4.1717965380   -0.1283581577
     S    -1.9112716350    6.3468804897   -1.6763830743
     H    -0.7368667302    4.2390899370   -3.4716557032
     H    -0.0074981568    1.9655974909   -2.9111661736
     H    -1.0746641285    2.4421627392    1.0915368818
     H    -1.8415327999    4.7499406314    0.6955171829
     H    -1.6506019772    6.4159137906   -2.9985343711
     F    -0.6515576325    0.0076291849    1.2159650480
