65
-2.0053739466466238e+03 frame 45   xyz file generated by TeraChem
    Mn     0.2960520518   -0.3005699233   -0.4035133066
     N    -0.6605960306   -1.6758956012   -1.7283944296
     N    -1.0799226880   -1.2576746145    0.9203000128
     C    -0.4454950115   -1.8231673837   -3.0462319205
     H     0.3438161759   -1.2197772906   -3.4852203073
     C    -1.1730155459   -2.7122643538   -3.8388467818
     H    -0.9328838216   -2.8010075026   -4.8934874005
     C    -2.1915084133   -3.4681235667   -3.2577051960
     C    -2.4314844750   -3.2917540728   -1.8856534153
     H    -3.2392937203   -3.8332947696   -1.4158014327
     C    -2.6974607698   -3.0271924342    1.0756216321
     H    -3.2395004056   -3.8342062027    0.6049836036
     C    -2.8743779961   -2.7878672209    2.4477140943
     C    -2.1180025323   -1.7703379566    3.0298594246
     H    -2.2071549103   -1.5307326306    4.0845844864
     C    -1.2278090313   -1.0431520183    2.2381696441
     H    -0.6239055226   -0.2546989212    2.6779908651
     C    -1.6424502903   -2.4167047179   -1.1352273611
     C    -1.8212961559   -2.2385040373    0.3261363408
     C    -3.8642347399   -3.5980301940    3.2496767786
     C    -3.0019533517   -4.4569350961   -4.0606815834
     C    -3.0060197837   -5.8597542300   -3.4197325518
     H    -4.0504333197   -4.1290865754   -4.1217524428
     H    -2.6311321841   -4.5206190393   -5.0894989623
     C    -5.2666987378   -3.6006182656    2.6079704126
     H    -3.9282388510   -3.2277701673    4.2786753146
     H    -3.5371722787   -4.6467834555    3.3103018929
     O    -5.4419285442   -3.2155303680    1.4678884640
     O    -6.2732857770   -4.0699223877    3.3277594485
     H    -6.0159716740   -4.3466071960    4.2264267183
     O    -2.6223893640   -6.0357884326   -2.2792865645
     O    -3.4750971209   -6.8656865768   -4.1405857767
     H    -3.7502799905   -6.6077862020   -5.0395438373
     N     2.4005567103   -0.0838617848   -0.1283320949
     N     0.5127752023    1.8038520453   -0.6789351447
     C     3.2981762911   -1.0407218328    0.1615924870
     H     2.9203788757   -2.0562723831    0.2332569381
     C     4.6558394134   -0.7775571356    0.3475075938
     H     5.3324844770   -1.6006171440    0.5536808024
     C     5.1129634124    0.5374440243    0.2592874501
     C     4.1669067368    1.5386650716   -0.0113619999
     H     4.4873074559    2.5691795734   -0.0489832014
     C     2.1349739960    3.5706343177   -0.7938620432
     H     3.1653846128    3.8912516014   -0.7553439835
     C     1.1337408877    4.5166254214   -1.0646758052
     C    -0.1811013095    4.0592311252   -1.1540412414
     H    -1.0041890408    4.7357798996   -1.3604240507
     C    -0.4440888432    2.7014261502   -0.9689993361
     H    -1.4594919593    2.3234107270   -1.0415617447
     C     2.8265515935    1.2099135047   -0.2290515018
     C     1.8063795302    2.2300759119   -0.5771341634
     C     1.4809044111    5.9764051566   -1.2306678319
     C     6.5725740193    0.8849250882    0.4260576329
     C     7.1098592245    1.7078778743   -0.7624229906
     H     6.7185931007    1.4920590332    1.3319209067
     H     7.1776024111   -0.0195383745    0.5525184576
     C     2.3040324586    6.5133214768   -0.0421252531
     H     0.5762363807    6.5812982163   -1.3563667075
     H     2.0876248531    6.1230978705   -2.1366943645
     O     2.8052471624    5.7623197284    0.7725571266
     O     2.4742485814    7.8228796053    0.0479890695
     H     2.0264490653    8.3254674567   -0.6571491359
     O     6.3590100366    2.2096179403   -1.5769359705
     O     8.4194705279    1.8775238720   -0.8526310342
     H     8.9219356391    1.4293217113   -0.1476617516
