31
-8.2847016605547526e+02 frame 161   xyz file generated by TeraChem
    Mn     0.2507594359    0.0903032547   -0.0838314850
     C     3.1417244780    0.7982424264   -0.9174536195
     O     2.1603739958    0.3597607659   -0.3088203716
     H     4.1484122523    0.5119842980   -0.5887721974
     H     3.0269004284    1.4697152326   -1.7785803294
     C     0.6068392268   -2.3760060301   -1.9067034769
     O     0.2888511733   -1.2563501269   -1.4928114126
     H     0.4863559170   -2.6074005782   -2.9722560641
     H     1.0038849084   -3.1455585410   -1.2314195812
     C     0.2194483616    3.5873927021    3.3692204662
     C     1.1894720023    2.5819847508    3.3643995316
     C     1.1670368136    1.5911026597    2.3471957395
     N     0.2276769173    1.5549556819    1.3782448212
     C    -0.7192153002    2.5324809341    1.3949792144
     C    -0.7479208149    3.5638743852    2.3652121229
     H     0.2221098098    4.3640016810    4.1292549601
     H     1.9710453481    2.5418964283    4.1184207865
     H     1.9308595574    0.8195280032    2.3279014239
     H    -1.4574338149    2.5168743023    0.6000424418
     H    -1.5242986140    4.3215905438    2.3051926990
     C    -4.5653130245   -0.7319489073    0.4666510661
     C    -3.7209138126   -0.6434728528    1.5730746041
     C    -2.3408190526   -0.3872782008    1.3784896558
     N    -1.7818954782   -0.2360746482    0.1474128972
     C    -2.6034252912   -0.3358846988   -0.9188580497
     C    -3.9992921042   -0.5702050052   -0.8003421741
     H    -5.6282434579   -0.9246326493    0.5845062466
     H    -4.0946857932   -0.7703112558    2.5853975741
     H    -1.6771729383   -0.3383359797    2.2362900847
     H    -2.1512847944   -0.2326185026   -1.9006538911
     H    -4.6000985010   -0.6274296885   -1.7041443067
