35
-8.4211006484965867e+02 frame 34   xyz file generated by TeraChem
    Cr    -0.2106522950    0.1324500506    0.0689579459
     C     4.5454491881    0.0212624754    0.3635588733
     C     3.9309634483    0.8878574694   -0.5460952598
     C     2.5471430632    0.9090760765   -0.6263170851
     N     1.7738000478    0.1101899870    0.1536788437
     C     2.3691971546   -0.7347773805    1.0345387910
     C     3.7496720326   -0.8022586356    1.1634193776
     H     5.6275853494   -0.0098051986    0.4478668127
     H     4.5145541502    1.5433273416   -1.1837311008
     H     2.0297775194    1.5697029418   -1.3138173550
     H     1.7144883706   -1.3505165733    1.6431981920
     H     4.1855549410   -1.4866483017    1.8832716695
     C    -1.1358487829   -3.2577484758   -3.1870852977
     C    -0.0282914366   -2.4255119947   -3.3794081548
     C     0.2393799650   -1.4329536350   -2.4488058652
     N    -0.5443177229   -1.2452946084   -1.3563511498
     C    -1.6199501466   -2.0564736255   -1.1686636967
     C    -1.9427863205   -3.0668279494   -2.0634977974
     H    -1.3633753445   -4.0440307121   -3.9005919059
     H     0.6233727698   -2.5446950774   -4.2384196441
     H     1.0918776778   -0.7721471172   -2.5605740952
     H    -2.2147472172   -1.8820483867   -0.2774505742
     H    -2.8090347038   -3.6912528894   -1.8731367331
     C    -1.5899262800    4.3551330282   -1.6190525456
     C    -2.0327257043    3.1781278669   -2.2281487991
     C    -1.5694437177    1.9597645296   -1.7543324366
     N    -0.6937580955    1.8814295686   -0.7187556003
     C    -0.2647945909    3.0260507961   -0.1237517020
     C    -0.6906148790    4.2741398197   -0.5513704401
     H    -1.9431706099    5.3209902885   -1.9675255744
     H    -2.7314669306    3.1986498234   -3.0575328807
     H    -1.8899339795    1.0216246832   -2.1933837805
     H     0.4176807865    2.9176914098    0.7132729305
     H    -0.3289189960    5.1639529024   -0.0473493071
     I    -1.3818192906    0.0649253887    2.3266380746
