25
-9.2314731820171653e+02 frame 87   xyz file generated by TeraChem
    Co    -0.2061124898   -0.0384256155   -0.1020301629
     S     1.6777971607    0.9249205861    1.0357175076
     C     2.3913804421   -0.2776791634    1.9104306354
     N     2.8780774050   -1.1560368125    2.5375838371
     C    -3.0194958874   -0.0520499271   -1.1652192591
     N    -1.6867399515   -0.7501097316   -1.2366159387
     H    -1.3858031033   -0.7822654227   -2.2174576374
     H    -1.8504228602   -1.7324624320   -1.0028387491
     H    -2.9391874172    0.9606816705   -1.5633018857
     H    -3.3466233773   -0.0075565510   -0.1248423997
     H    -3.7617440996   -0.5982217953   -1.7534212388
     C    -0.6592592394    2.9220013904   -0.4528780998
     N    -0.2055109474    1.6774127140   -1.1710123846
     H     0.7223301463    1.8550296416   -1.5710778185
     H    -0.8028764702    1.5638835416   -1.9930608454
     H     0.0267814463    3.1534133574    0.3643555925
     H    -1.6614896677    2.7633201169   -0.0495032441
     H    -0.6782585891    3.7701771487   -1.1422699017
     C    -1.3069816667   -1.8909127598    1.9671565015
     N    -0.2007336772   -1.7447845817    0.9573110117
     H    -0.2143612028   -2.5564082912    0.3306328784
     H     0.6872158094   -1.8497247656    1.4573757497
     H    -2.2755184823   -1.8829817324    1.4634404950
     H    -1.2576407676   -1.0588910962    2.6722766973
     H    -1.1997550901   -2.8311800265    2.5139279704
