25
-1.5032137808242883e+03 frame 83   xyz file generated by TeraChem
    Cr    -0.2146172944    0.1420022873   -0.1673989040
     C     4.4897492105   -0.3777451585    0.5011403606
     C     3.9814374930    0.2744419097   -0.6237748265
     C     2.6074820094    0.3805422676   -0.7778110916
     N     1.7431203865   -0.1356267422    0.1325697714
     C     2.2346370219   -0.7674940677    1.2286201495
     C     3.6000281217   -0.9035935042    1.4380944962
     H     5.5616777419   -0.4695114043    0.6467753957
     H     4.6355413588    0.7059320223   -1.3733680207
     H     2.1702533572    0.8962695627   -1.6240917017
     H     1.5065121217   -1.1481950495    1.9332638992
     H     3.9501630082   -1.4123678411    2.3295127221
     C    -0.9833753577   -3.0128696400   -3.6764954023
     C    -0.8181696577   -3.4130852193   -2.3494884486
     C    -0.5802679526   -2.4514047456   -1.3784828668
     N    -0.5002965649   -1.1314562088   -1.6859383513
     C    -0.6622636028   -0.7398312526   -2.9746412078
     C    -0.9034465721   -1.6553394897   -3.9890672188
     H    -1.1758367685   -3.7466713769   -4.4531375368
     H    -0.8806409660   -4.4562850241   -2.0600027721
     H    -0.4708286180   -2.7197247230   -0.3344065213
     H    -0.6018994039    0.3244734227   -3.1586296848
     H    -1.0317248158   -1.2984747105   -5.0050656601
    Cl    -0.4438338511    2.0909156994   -1.1653418269
    Cl    -1.1139047144   -0.8019455369    1.6118959536
