16
-1.0695080705472387e+03 frame 16   xyz file generated by TeraChem
    Fe     0.1408327727    0.1079315366    0.1651350593
     C     4.8035268768   -0.0818169224   -0.0273165397
     C     4.0839292049    0.8074904185   -0.8403626366
     C     2.7028967162    0.8483090653   -0.7446784404
     N     2.0309794912    0.0515025013    0.1089485969
     C     2.7047791933   -0.8038393547    0.9045985198
     C     4.0846143752   -0.8976174037    0.8619000757
     S     6.5643793055   -0.2293652032   -0.0616076364
     H     4.5839169881    1.4662600321   -1.5422406320
     H     2.0859340601    1.5181594322   -1.3313960892
     H     2.0885662981   -1.3919886447    1.5736630003
     H     4.5906318200   -1.5987412627    1.5170720593
     H     6.7839967738    0.7026916124   -1.0110301313
     F    -0.3253319417   -1.0556527238   -0.9989178364
     F    -0.0261843640    1.6588618603   -0.6239609380
     F    -0.0277546892   -0.6804679420    1.7154984852
