29
-5.5230678204821277e+02 frame 70   xyz file generated by TeraChem
    Ni    -0.0423014981   -0.0708838315    0.2502037424
     C     1.3876614677   -2.6760403404    0.1357762697
     N     1.5929320193   -1.1995508174    0.3347517875
     H     2.3009993419   -0.8816177412   -0.3325385472
     H     2.0449545373   -1.0583367372    1.2419444552
     H     0.9786762068   -2.8569589389   -0.8589502581
     H     0.6862680100   -3.0535464101    0.8822775633
     H     2.3366728239   -3.2092815583    0.2354160163
     C    -0.6477464842   -0.6680305602   -2.6238980754
     N     0.1905745191    0.1897471712   -1.7178809010
     H     0.0133038125    1.1739530018   -1.9386348662
     H     1.1701252883    0.0607225678   -1.9818490096
     H    -1.7065596129   -0.4933979569   -2.4241400707
     H    -0.4226757746   -1.7180225859   -2.4346741296
     H    -0.4402017742   -0.4350169477   -3.6714831281
     C    -1.4679030887    2.5370003095    0.3579326164
     N    -1.6762208674    1.0600343727    0.1657370550
     H    -2.1303809371    0.9158677456   -0.7399178019
     H    -2.3833769254    0.7462892619    0.8359304449
     H    -0.7644085230    2.9093176800   -0.3891848370
     H    -1.0601017669    2.7217450562    1.3524343160
     H    -2.4155408769    3.0718859399    0.2541713129
     C     0.5558266277    0.5279451565    3.1250846113
     N    -0.2765267237   -0.3339831542    2.2175061391
     H    -1.2572574864   -0.2109783330    2.4800170835
     H    -0.0936903222   -1.3171757223    2.4381400627
     H     0.3279272049    1.5769258878    2.9337302858
     H     1.6158417287    0.3564119007    2.9290082731
     H     0.3456560070    0.2956864534    4.1723177746
