11
-5.5224725542566819e+02 frame 68   xyz file generated by TeraChem
    Fe     0.1372231421   -0.1647717891    0.0423888635
     C     2.7993008630    0.9234490850   -0.7596485612
     O     2.3276260474   -0.0400899201   -0.1737752502
     H     3.8917176676    1.0309431706   -0.8554867355
     H     2.1381939699    1.6882209671   -1.1901613681
     C    -0.8851545185   -2.6738306805   -1.2966533588
     O    -0.3877067160   -1.6006557066   -1.5988621721
     H    -1.0328448900   -2.9486850793   -0.2428097238
     H    -1.1963477528   -3.3796674303   -2.0846295784
     F    -0.0340728873    1.4345811820   -0.7364118211
     F    -0.3567974549   -1.4037558933    1.2331669151
