16
-2.1722341804068674e+03 frame 41   xyz file generated by TeraChem
    Co     0.1804402946    0.2100469516    0.3058654728
     C     4.8951022957   -0.2503523568   -0.2063420068
     C     4.3084854513    1.0235502464   -0.2341329935
     C     2.9338105348    1.1436953267   -0.1148926966
     N     2.1264841058    0.0724311161    0.0244107032
     C     2.6807930930   -1.1603287705    0.0439611855
     C     4.0455843794   -1.3598392316   -0.0615264903
     S     6.6305556078   -0.5337477989   -0.3442444001
     H     4.9053070214    1.9225494615   -0.3454474658
     H     2.4401089192    2.1073172163   -0.1287801680
     H     1.9987622556   -1.9972907552    0.1372051960
     H     4.4377622398   -2.3709861392   -0.0360268512
     H     6.9939324133    0.7596471627   -0.4605143362
    Cl    -0.4586722762   -1.3331829093   -1.1039071203
    Cl    -0.1452118527    2.3550329793   -0.0052569400
    Cl    -0.8081448322   -0.1686138907    2.1903525442
