53
-1.4009069249926788e+03 frame 152   xyz file generated by TeraChem
    Mn    -0.0068271430    0.0041915397    0.0085548678
     C     1.6101900559    0.8420309633    0.8507342125
     N     2.5544203023    1.3252721675    1.3409928448
     C     3.6723868870    1.8916038959    1.9198584008
     C     3.7950590804    3.2987549416    1.9385485333
     C     4.9200578529    3.8548240790    2.5256389391
     C     5.9130966960    3.0220131587    3.0769068386
     C     5.7786145203    1.6204125118    3.0464980419
     C     4.6571770974    1.0432817661    2.4734869056
     H     3.0157438869    3.9203539883    1.5110611253
     H     5.0362377454    4.9330034483    2.5601120930
     H     6.5537613752    0.9918345093    3.4721708708
     H     4.5335634304   -0.0336411986    2.4352503700
     H     6.7935064951    3.4662346068    3.5314052090
     C    -1.6237336616   -0.8368369116   -0.8307948361
     N    -2.5678203341   -1.3261758488   -1.3152425076
     C    -3.6856418364   -1.9040896159   -1.8828246935
     C    -4.6713482501   -2.4578377495   -1.0356572966
     C    -5.7926645939   -3.0297884025   -1.6140644032
     C    -5.9261314691   -3.0590509594   -3.0157957868
     C    -4.9321730363   -2.5076824219   -3.8474436745
     C    -3.8072768795   -1.9216293238   -3.2900851213
     H    -4.5485378469   -2.4204773441    0.0413873893
     H    -6.5685191110   -3.4555067657   -0.9863918431
     H    -5.0475627283   -2.5412578396   -4.9257383351
     H    -3.0272751433   -1.4940695876   -3.9107702463
     H    -6.8064670758   -3.5127249664   -3.4610059742
     C    -0.0067166758    1.4232086421   -1.4084452148
     N    -0.0071771701    2.2505936305   -2.2337981431
     C    -0.0077634793    3.2279370986   -3.2084014939
     C    -1.2436843703    3.6782718104   -3.7234915133
     C    -1.2327579954    4.6629973970   -4.6978182923
     C    -0.0089633047    5.1849994236   -5.1593691134
     C     1.2154414200    4.7225382075   -4.6395935962
     C     1.2275631513    3.7451345372   -3.6579297985
     H    -2.1738814999    3.2639591066   -3.3499812631
     H    -2.1679292141    5.0320135365   -5.1057186763
     H     2.1501359674    5.1321652388   -5.0079031031
     H     2.1582410202    3.3709027440   -3.2453519287
     H    -0.0094357164    5.9539922476   -5.9259216408
     C    -0.0070611851   -1.4142960881    1.4253461115
     N    -0.0069246617   -2.2413793510    2.2509958286
     C    -0.0070625036   -3.2182522582    3.2261635177
     C    -0.4423449624   -4.5192842858    2.8898155270
     C    -0.4340817753   -5.4931696620    3.8752406666
     C    -0.0073711715   -5.1741035185    5.1786306960
     C     0.4194996081   -3.8713438217    5.5000231943
     C     0.4280791639   -2.8842365232    4.5278434246
     H    -0.7630869796   -4.7425247374    1.8779864166
     H    -0.7569913101   -6.5024704275    3.6423397309
     H     0.7422918647   -3.6402360170    6.5097736456
     H     0.7489561080   -1.8728488916    4.7528845669
     H    -0.0074904933   -5.9425805932    5.9457658318
