11
-1.6593569801144270e+03 frame 18   xyz file generated by TeraChem
    Cr     0.2287358254    0.5751337484   -0.3420391646
     S     2.4676847547    0.9214627922   -0.0410895950
     C     3.0413232024   -0.6382342131    0.3580422719
     N     3.4912599696   -1.6901992630    0.6586630959
     S    -0.6608119029   -0.2988448115   -2.2456351106
     C    -0.2042306115   -1.9396314164   -2.1104874480
     N     0.0754644414   -3.0882054191   -2.0622458753
     S    -0.1881428637    2.7869166485   -0.6597168661
     C    -1.7289056095    2.9424843390   -1.3877934889
     N    -2.7908621183    3.1047750781   -1.8838596893
     F    -0.5403390286   -0.0302496634    1.0858086311
