35
-1.3280264971555348e+03 frame 55   xyz file generated by TeraChem
    Fe    -0.0708204345   -0.0993242601    0.0711706719
     C     4.5940949651   -0.4848850681   -0.3246762398
     C     3.9259159386    0.4554541468   -1.1142993995
     C     2.5464282812    0.5613830933   -1.0182971187
     N     1.8315981138   -0.2322106863   -0.1826927847
     C     2.4746172638   -1.1511754769    0.5864179425
     C     3.8542137245   -1.2974054618    0.5372590079
     H     5.6743512428   -0.5808303140   -0.3792567867
     H     4.4640647524    1.1065428851   -1.7949547176
     H     1.9907363320    1.2834971256   -1.6035735541
     H     1.8615074906   -1.7574698882    1.2441681879
     H     4.3312782348   -2.0376612766    1.1707535689
     C    -2.1423775349   -2.5368964672   -3.3171429680
     C    -0.7659772069   -2.6694288439   -3.1196744395
     C    -0.1418873287   -1.8932846836   -2.1530709316
     N    -0.8433399177   -1.0043257461   -1.4073089190
     C    -2.1821509021   -0.8733754112   -1.5875455032
     C    -2.8585009601   -1.6238064256   -2.5380042943
     H    -2.6516128886   -3.1401678282   -4.0626625858
     H    -0.1749351166   -3.3691778312   -3.7008953442
     H     0.9207023289   -1.9710012569   -1.9605136834
     H    -2.7002170531   -0.1690595308   -0.9450429184
     H    -3.9299068390   -1.4970475010   -2.6511044363
     C    -0.8315216411    4.4788247817   -0.6171130892
     C    -0.8920043804    3.6330558630   -1.7288418956
     C    -0.6509773490    2.2768504498   -1.5611998261
     N    -0.3542496656    1.7593850243   -0.3445502893
     C    -0.2943760219    2.5737210460    0.7384629463
     C    -0.5292985880    3.9384111328    0.6347888529
     H    -1.0208478218    5.5426041119   -0.7250434275
     H    -1.1274332791    4.0140534706   -2.7169461471
     H    -0.6917624784    1.5799791369   -2.3897550210
     H    -0.0722473579    2.1091472074    1.6954367411
     H    -0.4793603191    4.5562924145    1.5249667202
    Cl    -0.9564509131   -0.9762057799    1.7923892700
