13
-8.4358692671379140e+02 frame 86   xyz file generated by TeraChem
    Fe     0.4637707205   -0.2568364026   -0.3174926054
     S     2.7565393507   -0.6316110237   -0.5992885709
     C     2.5892983635   -0.3790973437    1.0707860536
     N     2.2908602683   -0.1975790568    2.1921910426
     O    -0.9697417309   -0.8811240956   -1.6677394379
     H    -0.9873863619   -1.7372673612   -2.1296813609
     H    -1.4453638732   -0.2363483664   -2.2201177006
     O     0.0131460084    1.7890416920   -0.7251661926
     H     0.7188239162    2.3045484427   -1.1571057888
     H    -0.2602460350    2.3202814011    0.0453469268
     O    -0.4292390392   -0.4827644291    1.5230917232
     H     0.2961810037   -0.5142308094    2.1932732963
     H    -1.1345450908   -1.0954627022    1.7925165737
