38
-1.2443236375349823e+03 frame 46   xyz file generated by TeraChem
    Fe    -0.3440245206   -0.2222390354   -0.2265742523
     C     4.1703712893   -0.2123036564    1.0717066735
     C     3.8154033763    0.0091840027   -0.2732102543
     C     2.4781933197   -0.0058269739   -0.6247848293
     N     1.4991138798   -0.2328539048    0.2882308715
     C     1.8286008311   -0.4430791599    1.5914462666
     C     3.1502927340   -0.4442810842    2.0087450614
     C     5.5418468320   -0.1987623421    1.4707110631
     H     4.5729123999    0.1882502339   -1.0284272117
     H     2.1756815111    0.1539816405   -1.6539389195
     H     1.0161728598   -0.6139667391    2.2852465671
     H     3.3796637221   -0.6219976438    3.0539697769
     N     6.6594112358   -0.1865099499    1.7921365118
     C    -1.0701042554   -2.6316630671   -4.2211786899
     C    -0.0477538418   -3.0035667431   -3.3281782122
     C     0.2153626273   -2.1932898006   -2.2377552368
     N    -0.4770680984   -1.0460185353   -1.9996476393
     C    -1.4692200356   -0.6900996766   -2.8599713981
     C    -1.7913849548   -1.4494475974   -3.9712244450
     C    -1.3699996970   -3.4392937484   -5.3601452075
     H     0.5259366010   -3.9107314373   -3.4834132852
     H     0.9910207612   -2.4589528057   -1.5264753462
     H    -2.0088151776    0.2241020476   -2.6378984107
     H    -2.5910553682   -1.1340943441   -4.6325107415
     N    -1.6108118787   -4.0944381874   -6.2904519599
     C    -1.3197639663    4.3140350098   -0.8637976376
     C    -0.4989562840    3.6400241326   -1.7890314193
     C    -0.2254439378    2.2988475653   -1.5924157599
     N    -0.7271623186    1.6162628129   -0.5318677833
     C    -1.5148395390    2.2566032612    0.3737365543
     C    -1.8323677066    3.5982066860    0.2303660752
     C    -1.6205897762    5.6995282975   -1.0387669666
     H    -0.0839472089    4.1566028404   -2.6476625021
     H     0.3922841074    1.7462391674   -2.2910180963
     H    -1.8757229979    1.6689610107    1.2078613998
     H    -2.4681879448    4.0779108091    0.9668026437
     N    -1.8625740309    6.8274292754   -1.1856360725
     F    -1.0252314961   -0.4170211538    1.3236349295
