13
-1.9043553739224114e+03 frame 70   xyz file generated by TeraChem
    Fe     0.0764767994   -0.0727266241   -0.0755617424
     N     1.5769712445    0.7357179718    0.7061690517
     C     2.5270569141    1.2569988604    1.2073020669
     S     3.8066523447    1.9584427365    1.8821005733
     N    -1.4242500358   -0.8801814712   -0.8573386807
     C    -2.3745235973   -1.3968659509   -1.3627324892
     S    -3.6537974075   -2.0923959137   -2.0445105602
     S     0.0769299696    1.5715225375   -1.7720559331
     H     1.3892917875    1.6711252579   -2.0717233368
     H    -0.2350276792    0.8468020223   -2.8673309977
     S     0.0801027037   -1.7155723898    1.6229350220
     H    -1.2345279503   -1.8380475775    1.9036033133
     H     0.3627324941   -0.9827983237    2.7208109916
