137
-4.2486643927237583e+03 frame 86   xyz file generated by TeraChem
    Mn    -0.0952989438   -0.0999034964   -0.0010736230
     C     1.8470957809   -3.2104939519    0.2240982567
     C     2.7641886269   -2.3556036315   -0.4092311084
     P     2.4686607957   -0.5404651956   -0.3460016548
     C     3.4987504973    0.0799762681    1.0483246709
     C     3.0289693176    1.1280091093    1.8508876911
     C     3.8167853377    1.6305217777    2.8884440696
     C     5.0763688726    1.0850870438    3.1364238766
     C     5.5509542793    0.0378676577    2.3413187231
     C     4.7702807665   -0.4631711503    1.3011992715
     C     3.3115776273    0.1497155153   -1.8337266720
     C     4.1100977096    1.3005022352   -1.7243852242
     C     4.7480963695    1.8226878391   -2.8507553914
     C     4.6003783548    1.2060589159   -4.0940936557
     C     3.8010614091    0.0664699777   -4.2105794180
     C     3.1518918856   -0.4563396035   -3.0915029000
     C     3.8912383788   -2.9137669424   -1.0355885061
     C     4.0949285504   -4.2943752687   -1.0173694953
     C     3.1790817037   -5.1342336537   -0.3793289729
     C     2.0529423217   -4.5904379078    0.2425294467
     H     0.9691866351   -2.8004566720    0.7194410387
     H     2.0517812820    1.5624776050    1.6701902816
     H     3.4428739464    2.4478720956    3.4972092934
     H     5.6888271471    1.4725161862    3.9452554126
     H     6.5323658127   -0.3876692990    2.5290601683
     H     5.1521264538   -1.2786116526    0.6956510250
     H     4.2551964448    1.7803994098   -0.7626942238
     H     5.3741761499    2.7044537766   -2.7505517871
     H     5.1112051509    1.6061256723   -4.9649742776
     H     3.6873648811   -0.4272462446   -5.1712635750
     H     2.5485341194   -1.3501566211   -3.2021939788
     H     4.6038234932   -2.2765813656   -1.5492554276
     H     4.9722953869   -4.7134026597   -1.5012831092
     H     3.3424117606   -6.2076991004   -0.3664357741
     H     1.3378119099   -5.2386965395    0.7403442591
     C    -2.7608863049    0.8295950805   -3.2305204893
     C    -2.8529282422   -0.5347747713   -2.9211107028
     P    -1.4851069681   -1.3990072324   -2.0222993646
     C    -2.3651795358   -2.8907823234   -1.3864089518
     C    -3.3150591706   -2.6788079643   -0.3738641584
     C    -4.1705849535   -3.7055090810    0.0213610021
     C    -4.0686891203   -4.9676010332   -0.5670086380
     C    -3.1133767676   -5.1942240823   -1.5582520658
     C    -2.2734201798   -4.1603859545   -1.9782546816
     C    -0.3818671570   -2.0046039822   -3.3734346698
     C     0.5318869997   -3.0444951074   -3.1265147036
     C     1.3345702528   -3.5418046185   -4.1544200938
     C     1.2552719918   -2.9921938340   -5.4362985905
     C     0.3680162633   -1.9434626102   -5.6836328041
     C    -0.4494537363   -1.4530241028   -4.6626006856
     C    -3.9716365086   -1.2580215858   -3.3735043228
     C    -4.9704712306   -0.6231017254   -4.1106303319
     C    -4.8700426558    0.7369943803   -4.4115791327
     C    -3.7613926139    1.4602219255   -3.9729356277
     H    -1.9037194048    1.4082664022   -2.9143418145
     H    -3.4131883951   -1.7016096811    0.0927915605
     H    -4.9120753166   -3.5185023864    0.7905571356
     H    -4.7359770009   -5.7676273715   -0.2600983829
     H    -3.0340722320   -6.1705201686   -2.0274331128
     H    -1.5753626137   -4.3454384220   -2.7859345264
     H     0.6054931203   -3.4904666852   -2.1406724713
     H     2.0177707521   -4.3606435847   -3.9496103037
     H     1.8732826303   -3.3856136517   -6.2381219187
     H     0.2919595122   -1.5168684195   -6.6796264918
     H    -1.1529047653   -0.6580668836   -4.8835069846
     H    -4.0685310106   -2.3156049777   -3.1578073675
     H    -5.8270264160   -1.1961839064   -4.4530229548
     H    -5.6500933948    1.2267777662   -4.9869858579
     H    -3.6682310183    2.5173106557   -4.2036899557
     C    -3.0945333091    2.1223454837   -0.0530676145
     C    -2.0359284638    3.0423946625    0.0058564945
     P    -0.3488292460    2.4699650087   -0.4423366378
     C    -0.1271204425    2.9416081971   -2.2092111889
     C     0.6045556774    2.1113484938   -3.0694265469
     C     0.8131243425    2.4792246681   -4.3998990138
     C     0.2879436323    3.6777248266   -4.8833253299
     C    -0.4490584969    4.5081506174   -4.0339230654
     C    -0.6579560691    4.1453921174   -2.7041581481
     C     0.8130523269    3.5910938432    0.4463824279
     C     1.9207729546    4.1412403534   -0.2200399666
     C     2.8022301507    4.9838125887    0.4591041494
     C     2.5906572649    5.2877318916    1.8047091339
     C     1.4937662328    4.7398150811    2.4740311610
     C     0.6108862947    3.8919110517    1.8043637037
     C    -2.3111731234    4.3769309960    0.3478107655
     C    -3.6212741426    4.7777890988    0.6141865798
     C    -4.6689004866    3.8558966997    0.5440083612
     C    -4.4039774299    2.5255590670    0.2115968765
     H    -2.9011330910    1.0863502406   -0.3186483012
     H     1.0100097325    1.1723404146   -2.7095879551
     H     1.3845598200    1.8252717125   -5.0506880226
     H     0.4475294713    3.9649465453   -5.9184210082
     H    -0.8618598975    5.4407929618   -4.4070638110
     H    -1.2389315305    4.7969493345   -2.0602531586
     H     2.0922501782    3.9310692166   -1.2700933049
     H     3.6465693039    5.4155120236   -0.0703641706
     H     3.2712153123    5.9540505168    2.3265015071
     H     1.3127608611    4.9808571374    3.5173547887
     H    -0.2450230660    3.4918448321    2.3358159140
     H    -1.5064757493    5.1017406309    0.4173655566
     H    -3.8234651405    5.8130649694    0.8727814061
     H    -5.6873534288    4.1737059113    0.7467752684
     H    -5.2142037124    1.8045802007    0.1539670473
     C     1.8524609071   -1.8108787655    3.4146860414
     C     0.5634661072   -1.4558898819    3.8218332721
     P    -0.6263863958   -0.5517125074    2.7265492958
     C    -2.1245822457   -1.6134833708    3.0273842007
     C    -1.9708955756   -2.9909459702    2.7895005755
     C    -2.9695171875   -3.8905533688    3.1531783564
     C    -4.1499113647   -3.4292449490    3.7416108804
     C    -4.3237630971   -2.0626279196    3.9565989516
     C    -3.3160195141   -1.1576185797    3.6087719794
     C    -0.9399009192    1.0203054656    3.6488591115
     C    -2.0507716363    1.8253080938    3.3402745882
     C    -2.3134081685    2.9851602191    4.0716871431
     C    -1.4567577637    3.3747669679    5.1035443803
     C    -0.3310050527    2.6021366997    5.3929588109
     C    -0.0720488141    1.4333903125    4.6739626096
     C     0.1378019396   -1.8167989325    5.1164415503
     C     0.9918932609   -2.5043451469    5.9736956748
     C     2.2793999641   -2.8544075941    5.5542610342
     C     2.7061177229   -2.5081492382    4.2746938322
     H     2.2088350382   -1.5433073392    2.4317511278
     H    -1.0480802313   -3.3753910637    2.3626971390
     H    -2.8227643485   -4.9529789232    2.9833888109
     H    -4.9236113693   -4.1313394725    4.0384477624
     H    -5.2333171014   -1.6940660712    4.4219751436
     H    -3.4556208199   -0.1088942218    3.8397346697
     H    -2.7252592765    1.5536037105    2.5358686878
     H    -3.1875603102    3.5814865029    3.8293854313
     H    -1.6665895001    4.2720405230    5.6782321162
     H     0.3422212482    2.8962659540    6.1930000684
     H     0.7974226515    0.8386937974    4.9294511721
     H    -0.8622336118   -1.5650710114    5.4546327683
     H     0.6504806526   -2.7723075489    6.9691382459
     H     2.9413832863   -3.3954347914    6.2239210833
     H     3.7032181011   -2.7747784363    3.9375689308
