24
-5.4038072544080239e+02 frame 91   xyz file generated by TeraChem
    Fe    -0.1241660219    0.1687792522   -0.1445363409
     N     1.9661322581    0.0017461084   -0.4300622984
     H     2.5553057208    0.4944557057    0.2523344002
     H     2.3375385176   -0.9557138187   -0.4596006133
     H     2.2345314015    0.4057020802   -1.3378202126
     N    -1.3314492468   -0.8005754004   -1.6139162292
     H    -1.4367271142   -0.2326231753   -2.4647447946
     H    -0.9392477495   -1.6867746904   -1.9556295035
     H    -2.2939984459   -1.0238984274   -1.3347842586
     N    -0.8715558258    2.1658315496   -0.2823515475
     H    -0.7280577919    2.5629055349   -1.2203337317
     H    -1.8775757280    2.2803788707   -0.1085672834
     H    -0.4158736149    2.8431369873    0.3410867912
     C    -1.0433518954   -1.8085174144    4.6648091129
     C    -0.9787249873   -2.6204890664    3.5340424343
     C    -0.7079297284   -2.0300901530    2.2336914637
     N    -0.5102017191   -0.7096704980    2.0288121147
     C    -0.5722117396    0.0641159187    3.1335980770
     C    -0.8371718796   -0.4439790145    4.4696363053
     H    -1.2439166629   -2.2197212693    5.6519378552
     H    -1.1245566913   -3.6984036825    3.5894869343
     H    -0.6574815257   -2.6880926923    1.3692011529
     H    -0.4125654095    1.1324629525    3.0090645892
     H    -0.8666516032    0.2670191812    5.2941769667
