46
-1.2079265073615475e+03 frame 80   xyz file generated by TeraChem
    Fe    -0.0569983507   -0.0389311087    0.0164594306
     C     4.6291794236    0.9414562789    0.5311225872
     C     3.7855993038    1.8486271971   -0.1433350937
     C     2.4431961216    1.5459808516   -0.2748841904
     N     1.9027910358    0.3985296302    0.2276093040
     C     2.7180313771   -0.4782972803    0.8845406166
     C     4.0698130761   -0.2458281379    1.0512875401
     C     6.0174830786    1.2169291969    0.6860935676
     H     4.1782925507    2.7725076054   -0.5554059151
     H     1.7702734400    2.2248127490   -0.7872269015
     H     2.2605415073   -1.3791110390    1.2830265057
     H     4.6860829759   -0.9668907463    1.5784615253
     N     7.1536306394    1.4404494405    0.8138435752
     C    -0.7608875154   -3.4471309172   -3.2920662528
     C     0.5417107612   -3.1231231266   -2.8941771380
     C     0.7286100587   -2.1377656929   -1.9371000885
     N    -0.3217024487   -1.4756126812   -1.3751407498
     C    -1.5907858348   -1.7880359202   -1.7678509780
     C    -1.8417469732   -2.7659505074   -2.7166453063
     H    -0.9320421775   -4.2167727698   -4.0397754598
     H     1.4034971687   -3.6277876001   -3.3193250523
     H     1.7225622602   -1.8585107192   -1.6044040607
     H    -2.4030339058   -1.2325866029   -1.3070229778
     H    -2.8654109825   -2.9866643948   -3.0022228926
     C    -2.4360720139    3.7876124786   -1.6129785679
     C    -1.6544902751    3.0056215464   -2.4740083039
     C    -0.9902594629    1.9027836154   -1.9626857975
     N    -1.0707219697    1.5636607308   -0.6429486810
     C    -1.8351220255    2.3224845017    0.1924584507
     C    -2.5262057196    3.4351024504   -0.2609231504
     H    -2.9687986002    4.6558237738   -1.9913867205
     H    -1.5655112358    3.2444971999   -3.5290775488
     H    -0.3860974120    1.2632213021   -2.5998476660
     H    -1.8878079660    2.0164404659    1.2321074403
     H    -3.1255290683    4.0140027782    0.4345770574
     C    -1.4962653340   -1.4556962851    4.3600215031
     C    -0.7858196387   -0.2590616869    4.1944995384
     C    -0.3799120136    0.1101477575    2.9226662265
     N    -0.6594186429   -0.6552775023    1.8281020394
     C    -1.3451657359   -1.8220210172    1.9910702327
     C    -1.7742872758   -2.2467917231    3.2388940658
     H    -1.8245548990   -1.7672567748    5.3479132876
     H    -0.5456019288    0.3765498541    5.0409060953
     H     0.1862158995    1.0224450964    2.7563279995
     H    -1.5415379651   -2.4099023601    1.1005471833
     H    -2.3176336908   -3.1820217628    3.3292497722
