16
-1.8075884480317900e+03 frame 41   xyz file generated by TeraChem
    Cr     0.1296686617    0.4901751257    0.2874539736
     C     4.9225440651   -0.2289421815   -0.1399110318
     C     4.0794627371   -0.2629957293   -1.2595715242
     C     2.7124789581   -0.1114618195   -1.0723034147
     N     2.1687848939    0.0705112904    0.1503446655
     C     2.9787759365    0.0975336586    1.2292782149
     C     4.3553042420   -0.0456265151    1.1288058208
     C     6.3408742420   -0.3830850737   -0.2894741621
     H     4.4791097313   -0.4101064262   -2.2561268441
     H     2.0250939022   -0.1532389924   -1.9098559664
     H     2.4866587038    0.2217603710    2.1862426731
     H     4.9718488886   -0.0198737072    2.0196477975
     N     7.4900880083   -0.5067644436   -0.4105127813
    Cl    -0.5185047711   -0.9658608795   -1.2250919929
    Cl    -0.8767135327    2.4200795028   -0.0259213515
    Cl    -0.1579929425   -0.4622231819    2.2456857043
