25
-6.4270336769292749e+02 frame 71   xyz file generated by TeraChem
    Fe    -0.2236548179   -0.1911780387    0.0539529818
     C     4.4866097259    0.8669445420   -0.3260102769
     C     3.6405569637    0.8709599851   -1.4373727345
     C     2.3044181988    0.5388264909   -1.2635371857
     N     1.7991511422    0.2038024905   -0.0534073470
     C     2.6189369347    0.1998162261    1.0217283445
     C     3.9650546080    0.5267511071    0.9225914683
     H     5.5349762893    1.1287278480   -0.4320589370
     H     4.0048541186    1.1341376884   -2.4243888772
     H     1.6122285241    0.5454922445   -2.1005802928
     H     2.1638378824   -0.0694052551    1.9678749203
     H     4.5860063299    0.5145597425    1.8116354400
     C    -1.0013806751   -3.8227375759   -3.0586850387
     C     0.0627436730   -3.8503424220   -2.1545775209
     C     0.2499722454   -2.7652184440   -1.3109181200
     N    -0.5582427389   -1.6811212203   -1.3412899190
     C    -1.5871804491   -1.6531338458   -2.2170921773
     C    -1.8380895037   -2.7064046448   -3.0878677067
     H    -1.1762460968   -4.6598179090   -3.7276609272
     H     0.7343384303   -4.6998045425   -2.0955798408
     H     1.0544712189   -2.7484136550   -0.5820157257
     H    -2.2105712852   -0.7657297095   -2.2071104045
     H    -2.6765268455   -2.6463428858   -3.7731736408
     I    -1.5105846050    1.9338355341   -0.5658503726
     I    -0.9023340633   -1.0799544716    2.3535733129
