13
-1.7203481105395629e+03 frame 27   xyz file generated by TeraChem
    Fe     0.3271720469   -0.0642978172    0.3881183616
     S     2.4199724501   -0.4793340600   -0.7404828024
     H     3.2071375372    0.5311972583   -0.3014350744
     H     2.3305090067   -0.0188232737   -2.0082411479
     S    -0.9055580889   -1.4710957654   -1.0359449995
     H    -0.3752598655   -2.6959498328   -0.8017372355
     H    -2.0623142838   -1.7278524106   -0.3823528645
     S    -0.1583243255    2.0023126627   -0.5956728144
     H    -0.1320991777    1.7653783680   -1.9266332832
     H    -1.5038763166    2.1337402007   -0.5378188781
     S    -1.3373952760    0.0486799652    2.1161908783
     H    -0.9555776085   -0.9931116131    2.8941999334
     H    -0.8289776879    0.9902579254    2.9473309200
