21
-6.3912801531573598e+02 frame 100   xyz file generated by TeraChem
    Co     0.1625846065   -0.1805548257   -0.2419621613
     C     3.2951347087    0.1193254058    0.2145493153
     N     2.1451144584    0.0507136871    0.0802181126
     C     4.7337157520    0.2051686216    0.3851686199
     H     4.9732925174    0.2809257696    1.4521788868
     H     5.1172953073    1.0901649465   -0.1347768189
     H     5.2081907294   -0.6924675807   -0.0274020959
     C    -1.3599131809   -1.9943450276   -2.3576637414
     N    -0.8400682785   -1.3450386941   -1.5492606205
     C    -2.0128437447   -2.8040961602   -3.3690246343
     H    -1.2770948295   -3.1255494627   -4.1150711318
     H    -2.7924446993   -2.2135472501   -3.8642693346
     H    -2.4675551262   -3.6855894689   -2.9034572424
     C    -0.4086566004    2.9453842692   -0.4897080609
     O    -0.1770592589    1.7438160658   -0.5746185358
     H    -0.4787249400    3.4396566249    0.4890682004
     H    -0.5488055562    3.5422523347   -1.4006791122
     C    -1.1846772350   -1.4227162168    2.4040923218
     O    -0.7019448486   -0.9251617629    1.3928218074
     H    -2.1366269013   -1.0510520584    2.8072899349
     H    -0.6720540983   -2.2457810910    2.9206430654
