38
-7.7387187553421825e+02 frame 173   xyz file generated by TeraChem
    Fe     0.5921943692   -0.0360567449    1.3740826701
     C     2.0126416557    0.3832003012   -0.0024168351
     N     2.8912877825    0.6086270715   -0.7360404153
     C     4.0454760414    1.0947465863   -2.9239788792
     C     2.8696468358    1.0885202054   -3.6765574889
     C     2.9487338441    1.3147697037   -5.0467234634
     C     4.2273505717    1.5537239288   -5.6898004221
     C     5.4099837491    1.5613229986   -4.9361587792
     C     5.3300247832    1.3368086987   -3.5752830400
     H     1.9052508614    0.9125523674   -3.2128319763
     H     2.0499834656    1.3161068507   -5.6577953364
     H     6.3688756120    1.7399940583   -5.4128011396
     H     6.2357778693    1.3384382074   -2.9724157725
     H     4.2518957956    1.7269728005   -6.7631395093
     C     4.1245444745    0.8668184299   -1.4316914321
     H     4.5873768042    1.7441466250   -0.9550058220
     H     4.7931358794    0.0167505215   -1.2279511149
     C    -0.6073467694   -2.5256438380    0.1496225773
     N     0.6304177625   -2.0109849121    0.8398043401
     H     1.4289606816   -2.2181267842    0.2366874915
     H     0.8010700646   -2.5913477171    1.6695886864
     H    -0.7839130662   -1.9388746301   -0.7538541948
     H    -1.4685010131   -2.4357878856    0.8136455466
     H    -0.4839689360   -3.5774070083   -0.1208445584
     C     0.1118115567    2.9331655225    1.1002529010
     N     0.6349349525    1.8892452007    2.0520577092
     H     0.1144838658    1.9878420677    2.9273457732
     H     1.5943323034    2.1451218487    2.3118198179
     H    -0.9291639902    2.7109343989    0.8573256066
     H     0.7091048340    2.9220448203    0.1875376962
     H     0.1679758448    3.9256671980    1.5545980084
     C    -2.1873557520    0.0927475903    2.5950089413
     N    -0.8040314347   -0.4730152874    2.8028909709
     H    -0.9045806624   -1.4862642132    2.9069368151
     H    -0.4771718029   -0.1734695027    3.7274310755
     H    -2.5611189018   -0.2132805138    1.6159944177
     H    -2.1530783769    1.1822822907    2.6463254107
     H    -2.8671866873   -0.2719590448    3.3694384305
