11
-5.7385920526182417e+02 frame 67   xyz file generated by TeraChem
    Co     0.3490897992    0.4593064942   -0.7618226356
     C     2.7270370071   -0.4469790694    0.5565209284
     O     2.4334676959    0.1230349822   -0.4859858278
     H     1.9397559569   -0.8322519792    1.2200161115
     H     3.7861325500   -0.5820956528    0.8258451731
     C    -1.0051670075   -1.7820795060   -2.0491997161
     O    -0.2563591681   -0.8672912518   -2.3626747531
     H    -1.2726632669   -1.9468997424   -0.9965253332
     H    -1.4075124832   -2.4491434313   -2.8282089681
     F     0.0636901753    2.1716747945   -1.0524463384
     F    -0.1501170532   -0.7960045637    0.4718762352
