17
-1.6924117541387068e+03 frame 36   xyz file generated by TeraChem
    Fe    -0.0861217655    0.0847608470   -0.4900966108
     N     1.7076617917   -0.1761797480   -0.2890661621
     C     2.7587241767   -0.3187325694    0.2953010517
     S     4.1906787911   -0.5258476645    0.9998087332
     N    -0.8290686625   -1.3580840587   -1.3670912602
     C    -1.1768533994   -2.4435513594   -1.7779359086
     S    -1.6750296043   -3.8605583633   -2.3529090694
     N    -0.3556526630    1.8961884051   -0.2823325347
     C    -0.2897309908    3.0469894060    0.0928180666
     S    -0.2577573193    4.5877708971    0.5525845499
     C    -0.2992471926   -1.4654397909    2.0340106784
     N    -0.8779241190   -0.3136013097    1.2724669228
     H    -0.8190068666    0.5557749822    1.8213517631
     H    -1.8773135701   -0.4784447785    1.0846449990
     H     0.7504955053   -1.2422467905    2.2588687949
     H    -0.3524007851   -2.3590181733    1.4009167807
     H    -0.8592211807   -1.6285086038    2.9688360149
