19
-6.2083865058908134e+02 frame 94   xyz file generated by TeraChem
    Co     0.2887873076    0.3586336339   -0.3962121237
     C     2.1425691658   -1.5473789595    1.1506196927
     N     1.4296663301   -0.7683963063    0.6728602550
     C     3.0337450130   -2.5224976241    1.7529848162
     H     3.1537172706   -2.3128838666    2.8218898145
     H     4.0136137664   -2.4753013071    1.2638055613
     H     2.6147010886   -3.5277853110    1.6268885002
     C     1.1953069069   -0.0861513861   -3.1130032778
     O     1.0799700726   -0.4868429696   -1.9528673604
     H     1.6834620603   -0.7430109275   -3.8426812144
     H     0.8262406802    0.8972016358   -3.4297838721
     C    -1.8272731950    2.0666143412   -1.4109481248
     O    -0.7696427870    1.4540175240   -1.5857682920
     H    -2.3423407189    2.0614181223   -0.4429747590
     H    -2.2533129757    2.6263788036   -2.2516495508
     C    -0.3306197756    1.2483884949    2.3178796982
     O    -0.6056694229    1.1710408195    1.1177797634
     H    -1.0198836741    1.7851267302    2.9803308388
     H     0.5784082534    0.7988256040    2.7336700153
