37
-1.6810043584262853e+03 frame 138   xyz file generated by TeraChem
    Fe    -0.0096325508    0.0054447377   -0.0148615623
     C     2.1481445437    0.5410253423   -2.2242558392
     N     1.3723390820    0.3921323000   -1.3754340772
     C     3.1211762742    0.7237283541   -3.2878261867
     H     4.0825855830    0.2899335496   -2.9888258552
     H     3.2568518468    1.7906266995   -3.4963649832
     H     2.7701719888    0.2231501949   -4.1979136476
     C     0.5665348818   -3.0299598039   -0.5464692758
     N     0.3012259076   -1.9207391506   -0.3367617105
     C     0.8991145427   -4.4188136947   -0.8146446673
     H     1.9685480450   -4.5826033865   -0.6370924306
     H     0.6685922222   -4.6592536577   -1.8591077771
     H     0.3225753148   -5.0789805009   -0.1573404045
     C    -0.7438653085    4.7447657198    0.3065301528
     C     0.5166752963    4.1847160152    0.6099416461
     C     0.6739303833    2.8102200778    0.5427068979
     N    -0.3396095683    1.9657217660    0.2208680780
     C    -1.5518670061    2.4997076964   -0.0618463162
     C    -1.7949548265    3.8647023990   -0.0393663969
     S    -1.0967083564    6.4559326176    0.3236254708
     H     1.3665380471    4.8004526392    0.8866894729
     H     1.6407888393    2.3614311099    0.7465032641
     H    -2.3480342134    1.8081443081   -0.3158830787
     H    -2.7859609657    4.2337171265   -0.2858124273
     H     0.1291899464    6.8894601053    0.6970211134
     C    -3.1302355340   -1.2556657659    3.4151894728
     C    -2.0601923272   -0.3761072269    3.6901061558
     C    -1.2195175745    0.0036886994    2.6541692756
     N    -1.3655442213   -0.4455599214    1.3844265056
     C    -2.3910358045   -1.2946685211    1.1188729867
     C    -3.2908909706   -1.7096677039    2.0854762893
     S    -4.2740429171   -1.8212889088    4.6083470675
     H    -1.8785385170    0.0131625556    4.6868028292
     H    -0.3982075903    0.6867874704    2.8429388803
     H    -2.4842795158   -1.6470498057    0.0972623650
     H    -4.0983647397   -2.3809320775    1.8089464008
     H    -3.7418560027   -1.1928944134    5.6817422121
