40
-2.5750966355480095e+03 frame 114   xyz file generated by TeraChem
    Co    -0.5557953033   -0.5992041308    0.3146398920
     N     0.4960178319   -2.0143083527    1.0695411514
     C     1.1439832414   -2.8835692803    1.5420237199
     S     2.0348505486   -4.0777815513    2.1906172244
     C    -0.3292363919   -2.9365138517   -3.8575840100
     C     0.8392619187   -2.4794438721   -3.2165583822
     C     0.7362751035   -1.7883144031   -2.0228743097
     N    -0.4508970623   -1.5035328687   -1.4366303470
     C    -1.5783976738   -1.9361315262   -2.0508012307
     C    -1.5617264867   -2.6472214208   -3.2349412664
     S    -0.3505924071   -3.8320058418   -5.3605195047
     H     1.8236821886   -2.6622179718   -3.6342646076
     H     1.6297197639   -1.4497099812   -1.5079273294
     H    -2.5201559160   -1.6904665132   -1.5709156795
     H    -2.5004269441   -2.9697802313   -3.6735531018
     H     0.9837905345   -3.8565850774   -5.5573917427
     C    -3.0915471510    2.9643277784   -1.5823646827
     C    -1.8688207288    2.5468178926   -2.1444166205
     C    -1.1737809482    1.5006786413   -1.5667825617
     N    -1.5992462229    0.8525445761   -0.4554470827
     C    -2.7716719661    1.2565844826    0.0949480366
     C    -3.5360690983    2.2782524991   -0.4322169276
     S    -4.0826686279    4.2613137955   -2.2092220072
     H    -1.4586891754    3.0237682798   -3.0282034869
     H    -0.2421944301    1.1556746799   -2.0012768138
     H    -3.0944253180    0.7356421236    0.9894181469
     H    -4.4701288310    2.5445887467    0.0518007902
     H    -3.2843598510    4.5941966850   -3.2443885190
     C    -0.6452950179    1.3932170695    4.6652773383
     C    -1.2010443983    0.1193784988    4.4338499463
     C    -1.1700947806   -0.4159416868    3.1589478421
     N    -0.6430890899    0.2386398409    2.0967707655
     C    -0.1107886702    1.4658554953    2.3123447981
     C    -0.0868460304    2.0642337110    3.5571045821
     S    -0.6012835747    2.1884404167    6.2229482217
     H    -1.6498988178   -0.4580410694    5.2351027461
     H    -1.5744017224   -1.4052794307    2.9699623913
     H     0.3033116648    1.9780844554    1.4500310085
     H     0.3598235946    3.0473088009    3.6644477060
     H    -1.2154049551    1.2133890160    6.9244596489
