37
-1.0429382067277586e+03 frame 83   xyz file generated by TeraChem
    Fe    -0.2827478483   -0.4958206002   -0.4165377101
     O     1.6140305978   -0.6463648871    0.1737779448
     C     1.9965222994   -1.4342956931    1.2791973620
     C     3.2992952482   -1.7588733461    1.1607743700
     C     3.7847097481   -1.1785710026   -0.0673521687
     C     2.7554891737   -0.5267923085   -0.6448713031
     H     1.2271508916   -1.6060540639    2.0134845165
     H     3.8736924871   -2.3368128795    1.8723055276
     H     2.6330193678    0.0578251942   -1.5420387272
     H     4.7929982338   -1.2376511357   -0.4550689936
     O    -2.0098327681   -1.3493565082   -1.6262057475
     C    -1.4237355785   -2.4082964808   -0.9348482286
     C    -0.1513483102   -2.6274735263   -1.4051977011
     C     0.0824370327   -1.6468288875   -2.4402793537
     C    -1.0690067931   -0.8994329516   -2.5349965658
     H    -2.0614860893   -2.9281995244   -0.2338605289
     H     0.5317345738   -3.3954222543   -1.0643227725
     H    -1.3851512956   -0.0849068148   -3.1735292878
     H     0.9671650460   -1.5409430252   -3.0540310244
     O    -0.3327569784    1.4847607273   -0.6169712793
     C    -1.5619995213    2.1527824144   -0.7909527877
     C    -1.3277297405    3.3817124894   -1.2941943211
     C     0.0988366288    3.5236171801   -1.4511459231
     C     0.6706686967    2.3735546127   -1.0411983477
     H    -2.4374836031    1.6207687221   -0.4509557558
     H    -2.0786513358    4.1288931758   -1.5130785090
     H     1.6820843527    2.0256418754   -0.9162072277
     H     0.6242733313    4.3985561677   -1.8095178761
     O    -0.9385693945   -0.2284985095    1.4563635768
     C    -0.4209697247    0.7482212552    2.3315465293
     C    -1.3317687379    1.0145667070    3.2872570327
     C    -2.4932880822    0.2010583232    3.0230331585
     C    -2.2367077124   -0.5275366310    1.9187456856
     H     0.5696222072    1.1007807741    2.0984537173
     H    -1.2035860244    1.7081381259    4.1072623617
     H    -2.7764197643   -1.2801668830    1.3688317556
     H    -3.4021948047    0.1622579908    3.6083054914
