45
-1.2468172354111846e+03 frame 38   xyz file generated by TeraChem
    Mn     0.2312155556   -0.2434383046   -0.3237930758
     C    -2.3353989347   -1.6322640259    3.0538722667
     C    -3.0893368215   -2.6063962173    2.4269810625
     C    -2.8853266417   -2.8822118641    1.0543738869
     C    -3.6309743797   -3.8779919679    0.3391063876
     C    -3.4003760720   -4.1087985567   -0.9842505486
     C    -2.4053327372   -3.3626967983   -1.7000716989
     C    -2.1303930772   -3.5663663866   -3.0729079012
     C    -1.1571820966   -2.8117400263   -3.7003893962
     C    -0.4567876042   -1.8512849223   -2.9550463685
     N    -0.6909296631   -1.6331388710   -1.6567210456
     C    -1.6523193580   -2.3727604092   -1.0227827441
     C    -1.8957449018   -2.1290840797    0.3766800826
     N    -1.1565499171   -1.1670695452    1.0101458113
     C    -1.3751101706   -0.9319699506    2.3082270968
     H    -2.4716142248   -1.4012338375    4.1045626820
     H    -3.8402062869   -3.1649999132    2.9787954436
     H    -4.3850962306   -4.4454209686    0.8756197120
     H    -3.9674944414   -4.8634154538   -1.5203931464
     H    -2.6889779493   -4.3174584640   -3.6244365531
     H    -0.9269318110   -2.9475318013   -4.7513057916
     H     0.3130341551   -1.2447393010   -3.4236360314
     H    -0.7688509000   -0.1616778506    2.7764107553
     C    -0.2009501086    4.1413417660   -1.0431434205
     C     1.1110871467    4.5543522574   -0.9093334038
     C     2.1227527413    3.6094601706   -0.6166950329
     C     3.5029142689    3.9706758117   -0.4641589134
     C     4.4455111389    3.0280026295   -0.1814242183
     C     4.0841974395    1.6478675029   -0.0288411550
     C     5.0290331547    0.6360488951    0.2633816624
     C     4.6159831159   -0.6759993699    0.3970354018
     C     3.2553805064   -0.9774808795    0.2383509103
     N     2.3358708699   -0.0468608966   -0.0382829444
     C     2.7298315910    1.2574662373   -0.1729226625
     C     1.7322069294    2.2551730323   -0.4722090000
     N     0.4278864357    1.8612793688   -0.6072119721
     C    -0.5025894992    2.7807804474   -0.8843160692
     H    -0.9954742685    4.8445779157   -1.2667834665
     H     1.3758484443    5.6014689984   -1.0266492112
     H     3.7814759255    5.0136170879   -0.5790124823
     H     5.4884926494    3.3064612676   -0.0666892684
     H     6.0762137334    0.9006565913    0.3804543392
     H     5.3192312041   -1.4706100866    0.6203333299
     H     2.8990997781   -1.9987377728    0.3359217831
     H    -1.5238451913    2.4245683886   -0.9821506710
