22
-1.0342494198171141e+03 frame 100   xyz file generated by TeraChem
    Co     0.5794692611    0.1969677397   -0.1797645533
     S     2.3616941363    1.6719599000    0.5328470084
     C     2.0250525669    1.4638150193   -1.0741750475
     N     1.4900575946    1.0737635913   -2.0639041957
     C    -0.8241929041   -1.8469868302   -2.0282670548
     N    -0.3626916499   -1.1129852093   -1.2641629051
     C    -1.3995051533   -2.7648868921   -3.0011849973
     H    -0.5966782291   -3.2719831616   -3.5458794782
     H    -2.0157159866   -2.2076483753   -3.7138277920
     H    -2.0190594464   -3.5116624202   -2.4953344990
     C    -1.6781819226    2.5743660882   -0.1973073574
     N    -0.9700061864    1.6624331653   -0.1271701739
     C    -2.5651338065    3.7272058548   -0.2902619439
     H    -2.3045024612    4.3221286068   -1.1711982669
     H    -2.4622109138    4.3505144869    0.6033593024
     H    -3.6042759556    3.3956434254   -0.3776321930
     C     0.1368585386   -1.1941358565    2.5409318153
     N     0.2628150064   -0.6767960708    1.5149591331
     C    -0.0186371824   -1.8393952110    3.8370898195
     H     0.9370844413   -1.8303745991    4.3708515340
     H    -0.3440579777   -2.8755924331    3.7021899142
     H    -0.7654181252   -1.3029340930    4.4309444074
