31
-9.8680060363079201e+02 frame 57   xyz file generated by TeraChem
    Co     0.2238448734   -0.2421330464   -0.2211465242
     O    -0.7830260846   -1.3549798854   -1.5466436359
     C    -1.6373769597   -2.1588341471   -0.9392128945
     C    -1.6947749150   -2.0968775007    0.5100422149
     C    -2.5899053137   -2.9370492394    1.1864559077
     C    -3.4371145098   -3.8401148694    0.5021501232
     C    -3.3747115289   -3.8895740685   -0.8892004871
     C    -2.4844236780   -3.0581656674   -1.6011715397
     O    -0.8874150027   -1.2413777393    1.1103137784
     H    -2.6180926284   -2.8769222488    2.2761527070
     H    -4.0216326352   -4.5803366501   -1.4355671420
     H    -2.4388462557   -3.0994407905   -2.6900486642
     C    -4.3814746617   -4.7332723542    1.2761509521
     H    -5.0782197427   -4.1620027629    1.9123579194
     H    -3.8528146967   -5.4260747623    1.9530857145
     H    -4.9925798456   -5.3488611291    0.6008062692
     O     2.1977408886   -0.0947202202    0.0621355276
     C     2.6158540757    1.1507989398   -0.0719483374
     C     1.6142275874    2.1510736623   -0.3870073889
     C     2.0150029857    3.4855184529   -0.5380205603
     C     3.3650565069    3.8838783835   -0.3937276523
     C     4.3190672461    2.9137258709   -0.0919996808
     C     3.9483792717    1.5614984887    0.0673518221
     O     0.3688401404    1.7310575336   -0.5107357725
     H     1.2465509239    4.2241347938   -0.7740688507
     H     5.3664622680    3.2031725447    0.0236690903
     H     4.6980409282    0.8054576038    0.3035610026
     C     3.7537362632    5.3354917543   -0.5674594021
     H     3.2363424237    6.0017341625    0.1435868609
     H     3.5141001336    5.7226880701   -1.5724792614
     H     4.8329878228    5.4802246935   -0.4165584340
