17
-3.1142525030209134e+02 frame 54   xyz file generated by TeraChem
    Cr     0.0764580722   -0.1425204781   -0.1843973635
     N     2.0928203741    0.2860905031   -0.3637780396
     H     2.4831429751    1.0129843002    0.2599818526
     H     2.6965458519   -0.5420195720   -0.2104152578
     H     2.3419705389    0.6013247975   -1.3195469771
     N    -1.3225488328   -1.3479197259   -1.1117784489
     H    -1.6196673649   -1.0025805859   -2.0426493601
     H    -0.9527706365   -2.2984840756   -1.3002018408
     H    -2.2072214375   -1.5089997864   -0.6005075482
     N    -0.7256569409    1.7056295703   -0.3180161365
     H    -0.5879298498    2.1492077806   -1.2454470182
     H    -1.7492447336    1.7207659883   -0.1624369751
     H    -0.3411966802    2.3843584613    0.3624277367
     N    -0.0279250192   -0.6687131020    1.7587140285
     H     0.3378582025    0.0413794677    2.4174289088
     H    -0.9939131983   -0.8558542151    2.0826495618
     H     0.4989996255   -1.5348803399    1.9779627909
