11
-3.5550638951347406e+02 frame 75   xyz file generated by TeraChem
    Mn     0.2225785930   -0.0125767270   -0.0099119927
     C     3.1431025650    0.0872423628   -0.6970501844
     O     2.1295599220   -0.4531579093   -0.2596874565
     H     4.1000450446   -0.4446144505   -0.6330574364
     H     3.1073027255    1.0872814823   -1.1493192615
     C    -1.1436467648   -2.2944961115   -1.4439116810
     O    -0.3372981972   -1.3719577921   -1.3458893481
     H    -1.7650963139   -2.6013003326   -0.5923684548
     H    -1.2412168383   -2.8182056930   -2.4025950166
     I    -0.0169795718    2.4218885623   -0.5865775962
     I    -1.2934682561   -0.2515202454    1.9741256077
