38
-2.1622436930016729e+03 frame 82   xyz file generated by TeraChem
    Fe     0.3543222612    0.2217311212    0.1323538780
     C     4.7340807385    1.7279158472   -0.7804574778
     C     3.6455737298    2.6294940615   -0.7637113732
     C     2.3607279225    2.1486558392   -0.6311725303
     N     2.0782968382    0.8202692832   -0.5181778246
     C     3.1251600869   -0.0560544476   -0.5306882676
     C     4.4336365694    0.3498809566   -0.6585675653
     S     6.4019811527    2.1957622587   -0.9343727325
     H     3.7982929857    3.7003891685   -0.8457593196
     H     1.5179559483    2.8317727046   -0.6052161205
     H     2.8817792078   -1.1087822981   -0.4257668875
     H     5.2222027147   -0.3956511010   -0.6569640262
     H     6.1960124108    3.5274889772   -1.0013333851
     C    -0.5833726821   -3.9099030951   -1.9429920917
     C     0.1909329034   -2.9340835800   -2.6130145227
     C     0.4738376495   -1.7387114765   -1.9885523965
     N     0.0446442093   -1.4529344301   -0.7302390198
     C    -0.7188562732   -2.3779284320   -0.0766628111
     C    -1.0355591219   -3.5926094372   -0.6423840497
     S    -1.0136104617   -5.4582136124   -2.6109921475
     H     0.5731785682   -3.1042949310   -3.6139369644
     H     1.0700384566   -0.9820816238   -2.4867745333
     H    -1.0515684219   -2.1073209572    0.9168644167
     H    -1.6329079172   -4.2948373795   -0.0697895116
     H    -0.3924725778   -5.3072446343   -3.7993122644
     C    -2.8088159125    3.2158108315   -1.6558858244
     C    -1.7636364243    2.7058181916   -2.4602020829
     C    -0.8371103691    1.8441026284   -1.9132992547
     N    -0.8839079425    1.4597232223   -0.6111451444
     C    -1.8928272751    1.9297750379    0.1772767149
     C    -2.8462287454    2.7987762548   -0.3069676503
     S    -4.0414060689    4.3110888596   -2.2170826378
     H    -1.6704227127    2.9770549394   -3.5064171421
     H    -0.0276111840    1.4452006999   -2.5148332305
     H    -1.9048077650    1.5837262351    1.2026158686
     H    -3.6216016053    3.1482502956    0.3671521265
     H    -3.6119337757    4.4052680638   -3.4926045067
     F    -0.4239917955   -0.0584883827    1.6367266392
