25
-4.6688837859930453e+02 frame 45   xyz file generated by TeraChem
    Cr     0.2111903447   -0.2101942528   -0.1363108815
     N    -0.0728252897   -2.1404228365   -1.0098017562
     N    -1.7075546661   -0.6603191727    0.7007425647
     C    -2.3143399215   -1.8193971630   -0.0478765979
     C    -1.2202536423   -2.8377280154   -0.3240301334
     H    -1.5987837276   -3.6631695162   -0.9339165782
     H    -0.8344819069   -3.2609889322    0.6090055802
     H    -2.7301570759   -1.4252795837   -0.9807911838
     H    -3.1334717268   -2.2709865475    0.5196023786
     H    -0.2865935678   -2.0502605394   -2.0093564929
     H     0.7497801203   -2.7502678129   -0.9851473256
     H    -1.6140829009   -0.9169607016    1.6898759197
     H    -2.3739612065    0.1172892573    0.7058794589
     N     2.1070299689    0.2934999966   -0.9823945610
     N     0.4291312951    1.7414519014    0.7156700370
     C     1.8371166283    2.2357972006    0.4932220925
     C     2.2984756477    1.7861684542   -0.8835084416
     H     3.3428674201    2.0613420261   -1.0577590530
     H     1.6933679595    2.2463457206   -1.6712136373
     H     2.4670009047    1.8027144029    1.2771626782
     H     1.8894293586    3.3242148234    0.5883078251
     H     2.8717108094   -0.1664864947   -0.4752647994
     H     2.2443613027    0.0064731957   -1.9559581946
     H    -0.2236552851    2.4008801072    0.2777253849
     H     0.2128690842    1.7995388148    1.7150603125
