37
-1.0645921214578184e+03 frame 103   xyz file generated by TeraChem
    Co    -0.5295705640    0.2749089452   -0.0953744365
     O     1.6097931688    0.0064466348   -0.2351385909
     C     2.4613439419   -0.4392572333    0.7755839739
     C     3.6233136538   -0.8909836833    0.2323640238
     C     3.5160269087   -0.7261370967   -1.1829779505
     C     2.2881350760   -0.1854733854   -1.4318773374
     H     2.0837436444   -0.3380832568    1.7815145994
     H     4.4705242444   -1.2808664456    0.7802359236
     H     1.7866252464    0.1559692055   -2.3246599144
     H     4.2654012066   -0.9662582907   -1.9253189996
     O    -0.9410921159   -1.3638954666   -1.4244044155
     C    -0.0398197641   -2.3621728265   -1.7667868138
     C    -0.2027755992   -2.6979103699   -3.0805844842
     C    -1.2452011948   -1.8725409781   -3.6025254491
     C    -1.6745157191   -1.0813248513   -2.5830089570
     H     0.5823857367   -2.7341146562   -0.9676044217
     H     0.3427820173   -3.4684225537   -3.6091170843
     H    -2.4637959310   -0.3515845703   -2.4762634944
     H    -1.6453297336   -1.8849991758   -4.6074812105
     O    -0.6780098842    2.2852514987    0.2914638863
     C    -1.8817292504    2.9536806011    0.5308144265
     C    -1.7414581791    4.2627113497    0.2152527345
     C    -0.3915535105    4.4518764367   -0.2509719108
     C     0.2239678620    3.2532388196   -0.1994871909
     H    -2.6792566350    2.3561091614    0.9460376167
     H    -2.5029351767    5.0240859723    0.3169816614
     H     1.2165245964    2.8893087893   -0.4121527972
     H     0.0555682101    5.3823370876   -0.5732968613
     O    -1.1003479266   -0.5073689879    1.7986976979
     C    -0.6730029825   -0.0005426964    3.0231741262
     C    -0.7684320328   -0.9689503132    3.9748365358
     C    -1.2784790478   -2.1424028103    3.3338359062
     C    -1.4685679710   -1.8315036642    2.0235961375
     H    -0.3921651443    1.0419748831    3.0264337707
     H    -0.5226780941   -0.8549079314    5.0220994210
     H    -1.8604679639   -2.3607759699    1.1686740925
     H    -1.5004017463   -3.0930321542    3.7996310964
