17
-1.4948149477839329e+03 frame 94   xyz file generated by TeraChem
    Fe    -0.1337728021    0.2414455152    0.2437330733
     P     2.1819938731   -0.1931242234   -0.1930520741
     H     2.9463292958    0.6355076297    0.6561925826
     H     2.5563070143   -1.5248968641    0.0688043182
     H     2.5632279363    0.0939147353   -1.5176183077
     P    -1.3992982988   -1.1886909716   -1.1972250562
     H    -1.1765061705   -0.9461478410   -2.5661345575
     H    -1.1625800180   -2.5581737075   -0.9716651408
     H    -2.7666215171   -0.9490153253   -0.9427894384
     P    -0.3961263904    2.4114606523   -1.0026230879
     H     0.0262036893    2.4655019041   -2.3444455389
     H    -1.7411704217    2.8366283047   -1.0225946448
     H     0.3043679445    3.4502230811   -0.3534782314
     P    -0.3943598877   -1.0140673523    2.4070133611
     H    -0.0008284429   -2.3650608432    2.4478597553
     H     0.3284571748   -0.3878275486    3.4444225048
     H    -1.7360185492   -1.0078851866    2.8434371078
