41
-1.1596783941039503e+03 frame 33   xyz file generated by TeraChem
    Ni     0.1805315358   -0.1845863408   -0.2113323285
     N    -0.9895836957   -1.1932198085   -1.5521431900
     N    -0.6202156029   -1.5710335760    1.0541426116
     C    -1.0341117049   -0.9860900480   -2.8809988214
     H    -0.4792746889   -0.1323587352   -3.2562670196
     C    -1.7423930504   -1.8186239946   -3.7409753210
     H    -1.7512957391   -1.6179352666   -4.8066415446
     C    -2.4234632135   -2.9073537050   -3.1973281711
     H    -2.9847010814   -3.5828678638   -3.8353822007
     C    -2.3706390160   -3.1298014999   -1.8208283376
     H    -2.8800574950   -3.9851633427   -1.3938238828
     C    -2.2424989311   -3.3242619472    1.2126402888
     H    -2.9599077370   -3.9839776373    0.7398110910
     C    -2.0593019218   -3.3761956985    2.5948522948
     H    -2.6262482883   -4.0840019216    3.1915397340
     C    -1.1520300533   -2.5057041620    3.1975064549
     H    -0.9890254107   -2.5080580571    4.2696251084
     C    -0.4526627504   -1.6159856861    2.3886318385
     H     0.2595734898   -0.9138947091    2.8101106470
     C    -1.6434257594   -2.2555441736   -1.0120702047
     C    -1.5100790166   -2.4074388814    0.4572366976
     N     1.9874649843    0.3205337903    0.5915508706
     N     0.3418090751    1.7099393003   -0.9644094291
     C     2.7947883734   -0.4932187864    1.2961999492
     H     2.3992869399   -1.4731982960    1.5439750268
     C     4.0749890765   -0.1148646762    1.6878028425
     H     4.6952056638   -0.8015251008    2.2533403710
     C     4.5299468961    1.1533682578    1.3288993406
     H     5.5238750876    1.4846574435    1.6130018043
     C     3.6981479926    1.9951566367    0.5898223893
     H     4.0507184122    2.9743451987    0.2896656310
     C     1.6627526840    3.7051465176   -0.8908333339
     H     2.5532228332    4.2294647584   -0.5657623372
     C     0.6903916651    4.3824717226   -1.6276488383
     H     0.8327667455    5.4279754767   -1.8827475189
     C    -0.4639264077    3.7063883389   -2.0209577895
     H    -1.2469552889    4.2001270446   -2.5858546711
     C    -0.5989347244    2.3682797899   -1.6663984553
     H    -1.4817338810    1.8006601088   -1.9417124822
     C     2.4237342855    1.5558226474    0.2290046539
     C     1.4665408093    2.3620878053   -0.5669239044
