16
-9.2029892157881977e+02 frame 117   xyz file generated by TeraChem
    Cr     0.1114357271    0.2279529255    0.2524590228
     S     3.0216805236   -2.9621056139   -1.0943482413
     C     2.0647751034   -1.8401718074   -0.6160645861
     N     1.3357186762   -0.9306600878   -0.2194643213
     C    -2.2892053255   -0.6806812606   -1.3769820506
     O    -1.6169259203    0.0002340973   -0.5968055342
     H    -3.3304317503   -0.3906979193   -1.5612014648
     H    -1.8686546645   -1.5592792579   -1.8818938876
     C     1.1227078145    2.6929757791   -1.2987313564
     O     0.4580620117    1.9551863796   -0.5638802206
     H     0.9473499551    3.7746919700   -1.2602718293
     H     1.8744636856    2.2820184436   -1.9839026436
     C    -0.8486697501   -0.6483402751    3.0825972943
     O    -0.6487275411   -0.0594501190    2.0158924079
     H    -1.3598309676   -0.1178405468    3.8949473701
     H    -0.5260051165   -1.6874689650    3.2229297478
