53
-1.3169883918077030e+03 frame 109   xyz file generated by TeraChem
    Ni    -0.0095769305    0.0384805067    0.3254316964
     N    -1.1551211930   -0.9051012904   -1.0344701222
     N    -0.4342113276   -1.6039220298    1.4075399104
     C    -1.4506287536   -0.4716624794   -2.2708817464
     H    -1.0291771908    0.4857765835   -2.5602146870
     C    -2.2476952512   -1.2019285531   -3.1418142947
     H    -2.4554417505   -0.8105122038   -4.1322990167
     C    -2.7713133984   -2.4370058488   -2.7331099740
     C    -2.4468119653   -2.8745940774   -1.4387511344
     H    -2.8290070080   -3.8285068919   -1.0937246791
     C    -1.6861850302   -3.6422200188    1.4139327185
     H    -2.3438522384   -4.3360363653    0.9029376474
     C    -1.2816136934   -3.9290393748    2.7273696854
     C    -0.4283301201   -3.0056656958    3.3508799135
     H    -0.0757940854   -3.1694975881    4.3640552155
     C    -0.0322886761   -1.8672138094    2.6654831450
     H     0.6268201911   -1.1374334743    3.1266243305
     C    -1.6444150523   -2.0985489246   -0.6071325700
     C    -1.2568883885   -2.4822141319    0.7746812791
     C    -1.7615458495   -5.1591595895    3.4433716399
     C    -3.6601293670   -3.2520619623   -3.6291688962
     H    -3.4667004141   -3.0438856753   -4.6846320254
     H    -4.7130300836   -3.0093253388   -3.4334399461
     H    -3.5343069305   -4.3243007285   -3.4535920364
     H    -2.0768713802   -5.9391967450    2.7457177558
     H    -2.6239766263   -4.9100736510    4.0758533250
     H    -0.9863371345   -5.5656047261    4.0993700167
     N     1.9265243836    0.1065452579   -0.2139779687
     N     0.1074706993    2.0181611295   -0.0291808685
     C     2.7714744453   -0.9338524144   -0.3099283132
     H     2.3624604339   -1.9094012444   -0.0684997929
     C     4.0958858711   -0.7809643921   -0.6942814301
     H     4.7383286856   -1.6531674902   -0.7595654366
     C     4.5880134864    0.4980195443   -0.9948747938
     C     3.6885515464    1.5709801550   -0.8933841260
     H     4.0338465443    2.5717161930   -1.1261365532
     C     1.6169993039    3.7860530378   -0.5917510166
     H     2.6142393403    4.1115288124   -0.8643697841
     C     0.6025359145    4.7455890248   -0.4524061590
     C    -0.6746438437    4.2816692552   -0.0990932240
     H    -1.5039832773    4.9712340436    0.0215820091
     C    -0.8789309728    2.9257712732    0.1032524433
     H    -1.8558770825    2.5405811791    0.3794706172
     C     2.3686709575    1.3579342593   -0.5032746564
     C     1.3532294627    2.4350698978   -0.3772531584
     C     0.8715196055    6.2094672121   -0.6548960255
     C     6.0213346767    0.7141863652   -1.3892199664
     H     6.3969038544   -0.1148311798   -1.9960078884
     H     6.6522816582    0.7721851345   -0.4923511559
     H     6.1530587910    1.6453323712   -1.9462849792
     H     1.8426269578    6.3853631920   -1.1234175308
     H     0.8620377891    6.7307479279    0.3108006256
     H     0.0952045121    6.6698873589   -1.2747671395
