9
-1.1285865643828954e+03 frame 10   xyz file generated by TeraChem
    Fe    -0.0593238721   -0.1106609733   -0.1441584190
     N     1.9039837586    0.2083846581    0.1678913791
     C     3.0605014469    0.3763541319    0.3473847028
     S     4.6676860180    0.6066119617    0.5906459554
     N    -0.4848049383   -1.4808349928   -1.5551048492
     C    -0.7112811523   -2.2916573252   -2.3852559900
     S    -1.0195029855   -3.4194075788   -3.5379264016
     I    -1.2437751863    2.2808605498   -1.0204196181
     I    -1.0663055256   -1.0331548357    2.3115131899
