46
-1.4943644829172388e+03 frame 45   xyz file generated by TeraChem
    Mn    -0.0595694877    0.0284507826    0.0712020467
     C     4.5767701272    0.7943762483    0.6173823299
     C     3.7677168819    1.6975825625   -0.0767603127
     C     2.4106484634    1.4331199497   -0.1984017820
     N     1.8430886343    0.3203595556    0.3458088880
     C     2.6326725810   -0.5594107771    1.0253129026
     C     3.9947558972   -0.3516139960    1.1744975390
     H     5.6422328463    0.9776722705    0.7239776890
     H     4.1773035787    2.5990168875   -0.5210256233
     H     1.7514407387    2.1119595252   -0.7279417445
     H     2.1466685736   -1.4342178625    1.4446765795
     H     4.5889045882   -1.0772454991    1.7208021427
     C    -0.7770020395   -3.3282700784   -3.1823122331
     C     0.4483661483   -3.2394133371   -2.5150706159
     C     0.6343794442   -2.2359649830   -1.5749858466
     N    -0.3414841904   -1.3307828501   -1.2902804141
     C    -1.5348114804   -1.4134126035   -1.9448124120
     C    -1.7822878833   -2.3988640324   -2.8873933937
     H    -0.9463205739   -4.1057811572   -3.9219502921
     H     1.2548237018   -3.9364787252   -2.7186357229
     H     1.5719343791   -2.1357131291   -1.0401005536
     H    -2.2833193227   -0.6657556194   -1.7021377291
     H    -2.7456507402   -2.4317268080   -3.3861712931
     C    -2.1503094373    3.9387813143   -1.5851480880
     C    -1.4443591740    3.1031699876   -2.4600640756
     C    -0.8604395836    1.9473638392   -1.9655646768
     N    -0.9495062484    1.6072666717   -0.6481562180
     C    -1.6331289177    2.4223071109    0.2034992826
     C    -2.2447403600    3.5880970490   -0.2350721836
     H    -2.6193884786    4.8474180028   -1.9520695294
     H    -1.3496711134    3.3414053220   -3.5147157028
     H    -0.3110458345    1.2705335166   -2.6129237193
     H    -1.6872046913    2.1187003738    1.2441869572
     H    -2.7852627354    4.2070631892    0.4736969584
     C    -1.6661502873   -1.3741014082    4.2835735833
     C    -2.1831641833   -1.9056490075    3.0720470019
     C    -1.6643054865   -1.4981832128    1.8672488535
     N    -0.6398550406   -0.5897043204    1.7693314518
     C    -0.1335351741   -0.0676607126    2.9361865859
     C    -0.6105576787   -0.4251701877    4.1713359258
     S    -2.2159017638   -1.7915157145    5.8639294806
     H    -2.9837314016   -2.6383263407    3.0734919285
     H    -2.0475472623   -1.9036865585    0.9368931753
     H     0.6733619723    0.6509484362    2.8406268226
     H    -0.1680833317    0.0220159054    5.0564186188
     H    -3.1666389497   -2.6755560199    5.4913873412
