22
-1.0122314526580319e+03 frame 91   xyz file generated by TeraChem
    Fe    -0.3981484047   -0.2892983448   -0.1740856571
     S     1.9437293278   -1.3442116544   -0.5488076578
     C     2.8219707608    0.0424777844   -0.7086495190
     N     3.4393956454    1.0446482342   -0.8274795528
     C    -2.2500570238   -2.1025751752   -2.0113491082
     N    -1.5600154693   -1.4599856209   -1.3331637852
     C    -3.1085647053   -2.9058727521   -2.8588312107
     H    -2.4952773815   -3.5409307382   -3.5088596145
     H    -3.7348062241   -2.2513617536   -3.4763393125
     H    -3.7511651031   -3.5393608449   -2.2360245605
     C     0.1339067164    2.7866885428   -0.7367631002
     N    -0.0829861611    1.6645629841   -0.5283796371
     C     0.4068221997    4.1846895892   -0.9981774933
     H     1.2302843396    4.2678464372   -1.7177555121
     H     0.6910930906    4.6855112020   -0.0651100767
     H    -0.4880058617    4.6650713497   -1.4112729850
     C    -0.9401053348   -0.8338797589    2.9270916240
     N    -0.7263915642   -0.6536701894    1.8002446841
     C    -1.2042549521   -1.0610658022    4.3353177314
     H    -0.2898582413   -1.4024314282    4.8337761490
     H    -1.9820185103   -1.8259241770    4.4442528477
     H    -1.5472207935   -0.1305540564    4.8020250950
