45
-1.2467533542882529e+03 frame 44   xyz file generated by TeraChem
    Mn     0.2294722501   -0.2463827055   -0.3239795066
     C    -1.1489244480   -2.6437325147    3.0589615712
     C    -2.1177621441   -3.4225314622    2.4517733404
     C    -2.3742116122   -3.2693083982    1.0688804935
     C    -3.3606354469   -4.0247546885    0.3484947274
     C    -3.5614923024   -3.8250619798   -0.9864913785
     C    -2.8042015155   -2.8417114378   -1.7090892927
     C    -2.9588316773   -2.5862239663   -3.0920002340
     C    -2.1782540200   -1.6201827371   -3.7013983327
     C    -1.2599816312   -0.8904370107   -2.9301477741
     N    -1.0963877616   -1.0955347488   -1.6178604511
     C    -1.8397931442   -2.0752253808   -1.0169892992
     C    -1.6056869166   -2.3081723870    0.3745264721
     N    -0.6230541784   -1.5667279029    0.9731972649
     C    -0.4172178308   -1.7288377728    2.2855248437
     H    -0.9411327224   -2.7307142787    4.1197203280
     H    -2.6870370991   -4.1462138532    3.0284156410
     H    -3.9438122108   -4.7643272026    0.8883054991
     H    -4.3034911889   -4.4067598889   -1.5245649819
     H    -3.6850320783   -3.1540100409   -3.6669450801
     H    -2.2663996783   -1.4131542226   -4.7622125981
     H    -0.6404964834   -0.1244644886   -3.3847334059
     H     0.3510316229   -1.1109112932    2.7383723485
     C     0.1385101531    3.6343841273   -2.3391618071
     C     1.3705477334    4.1459932532   -1.9735907901
     C     2.2337706150    3.3782007068   -1.1569644382
     C     3.5273048204    3.8248241514   -0.7216241369
     C     4.3121912960    3.0376439726    0.0695094605
     C     3.8615027354    1.7457575894    0.5056140637
     C     4.6265170490    0.8806634365    1.3228069115
     C     4.1108329564   -0.3493909264    1.6893965826
     C     2.8228266289   -0.7086588983    1.2630674807
     N     2.0647781687    0.0888282643    0.5011598547
     C     2.5844985571    1.2921468155    0.1042341812
     C     1.7761923621    2.1028603593   -0.7549995415
     N     0.5707751204    1.5871985347   -1.1507464867
     C    -0.2247642090    2.3476643741   -1.9122412124
     H    -0.5487181056    4.2063830605   -2.9527210925
     H     1.6789927930    5.1342230106   -2.3030043557
     H     3.8721868950    4.8038380353   -1.0394579539
     H     5.2924580499    3.3794510245    0.3868111498
     H     5.6158200626    1.1860403664    1.6518581433
     H     4.6806259623   -1.0380297883    2.3034277757
     H     2.3935220082   -1.6657926180    1.5391136670
     H    -1.1835646227    1.9215380474   -2.1875170786
