19
-8.3828228315579770e+02 frame 110   xyz file generated by TeraChem
    Mn     0.1152304612    0.1960370625   -0.7445044340
     O     2.0161554945   -0.0730210554   -0.5330948014
     N     3.4806787473    0.3587442505    1.3713708857
     C     2.7571259675    0.1573942554    0.4659383154
     O    -0.4951448023   -1.3844353154   -1.7441078183
     N    -0.5345643806   -3.7143936659   -1.0288735225
     C    -0.5082997563   -2.5886995928   -1.3774229517
     O    -0.7089690910    1.9449065378   -0.9778688788
     N    -2.0378989987    3.3873750209    0.4701546024
     C    -1.3981359555    2.6891311142   -0.2303122170
     O    -0.7575030458   -0.4016477015    1.3019968316
     C    -0.6681484363   -1.6692352931    1.8496054265
     C    -1.0601002913   -1.6250209208    3.1454293755
     C    -1.4170601823   -0.2607295917    3.4305773409
     C    -1.2225868595    0.4463065849    2.2915569034
     H    -0.3550238971   -2.4508670944    1.1714756714
     H    -1.0972328767   -2.4667515245    3.8227766370
     H    -1.3764080360    1.4753513970    1.9988903784
     H    -1.7771277247    0.1393102957    4.3682215624
