39
-1.8329210098545866e+03 frame 57   xyz file generated by TeraChem
    Fe     0.2810578123   -0.0582886236   -0.1109340648
     N     1.8694762460    0.5291182193    0.4867726711
     C     2.9129794523    0.9526877067    0.9138119418
     S     4.3001845965    1.4905097378    1.4571835721
     N    -0.7555873730   -1.0942516157   -1.1404502330
     C    -1.5159676991   -1.7581036771   -1.7997444577
     S    -2.4840605623   -2.6466379865   -2.6818222206
     C    -0.4904701915    1.5896551521   -0.4940565238
     N    -0.9533687801    2.6205334551   -0.7531813729
     C    -2.4272264426    4.3931120675    0.0854426200
     C    -3.7885538055    4.0671507694    0.0985823683
     C    -4.6033225177    4.5172023551    1.1372879191
     C    -4.0605407321    5.2923055482    2.1648182770
     C    -2.7027058254    5.6194404582    2.1534541957
     C    -1.8857420589    5.1707227001    1.1158159360
     H    -4.2150493729    3.4750383151   -0.7078607847
     H    -5.6613990404    4.2730797224    1.1381433721
     H    -2.2820265232    6.2324089112    2.9448948006
     H    -0.8315164992    5.4376044458    1.1009676593
     H    -4.6978187099    5.6499130920    2.9681893050
     C    -1.5425348252    3.9108828235   -1.0449145570
     H    -0.7075724315    4.5933511507   -1.2303291118
     H    -2.0995638836    3.7903254449   -1.9789834127
     C    -0.5244047342   -0.3864432464    1.5327599202
     N    -1.0085831973   -0.6143203525    2.5612335919
     C    -1.0326083647   -2.2980473717    4.3433559608
     C    -1.6875736517   -3.4880859440    4.0053663366
     C    -1.1895509759   -4.7097281390    4.4574063065
     C    -0.0376570463   -4.7451777329    5.2465609805
     C     0.6163347750   -3.5587600982    5.5862555366
     C     0.1207188634   -2.3355566108    5.1354513424
     H    -2.5890253392   -3.4608068502    3.3976085848
     H    -1.7036883045   -5.6307999204    4.2001639271
     H     1.5066074965   -3.5846886887    6.2072197264
     H     0.6258208225   -1.4116152521    5.4073604724
     H     0.3465254642   -5.6966091833    5.6021120985
     C    -1.5693605016   -0.9713857707    3.8488776036
     H    -1.3232528111   -0.1502310703    4.5289283935
     H    -2.6551841244   -0.9926091467    3.7152383828
