49
-1.1638578623473584e+03 frame 30   xyz file generated by TeraChem
    Cr     0.2939993812   -0.3396827245   -0.3617713963
     O    -0.7541242927   -1.3909144148   -1.6747001734
     C    -1.5862207503   -2.2210846237   -1.0680920681
     C    -1.5822635163   -2.2123370638    0.3762853835
     C    -2.4454026304   -3.0739540898    1.0645941670
     C    -3.3289606621   -3.9575727378    0.3960088440
     C    -4.2462843902   -4.8718523902    1.2288726533
     C    -3.3931464573   -5.7953153502    2.1327436730
     C    -5.1713164997   -4.0159014094    2.1284537939
     C    -5.1431962304   -5.7701667829    0.3551820950
     C    -3.3213571130   -3.9523820213   -1.0036688408
     C    -2.4626562386   -3.0962174715   -1.7221457582
     O    -0.7436454825   -1.3754610941    0.9660159534
     H    -2.4101190859   -3.0357034447    2.1540299930
     H    -2.7517299807   -6.4397237458    1.5197590979
     H    -4.0263407526   -6.4377029199    2.7660533065
     H    -2.7402605108   -5.2066896038    2.7840638019
     H    -5.8130695115   -3.3746000330    1.5125495999
     H    -4.5837281155   -3.3627431503    2.7804535259
     H    -5.8163744347   -4.6472430282    2.7608888976
     H    -5.7948267551   -5.1711122000   -0.2912220504
     H    -5.7804773376   -6.4047282746    0.9880935325
     H    -4.5431615597   -6.4244778668   -0.2876050792
     H    -3.9793121852   -4.6115795548   -1.5665238301
     H    -2.4661683724   -3.1028179120   -2.8127961948
     O     2.2391057613   -0.1913874125   -0.0379568839
     C     2.6706255464    1.0478559259   -0.1998133187
     C     1.6827743982    2.0336763710   -0.5654939153
     C     2.0835324925    3.3607798439   -0.7629299259
     C     3.4300313940    3.7759027190   -0.6086676539
     C     3.7939795048    5.2502449926   -0.8623888893
     C     3.4692184405    5.6270896231   -2.3284589400
     C     2.9804566488    6.1715804296    0.0790690823
     C     5.2875943339    5.5449442581   -0.6215649789
     C     4.3739996496    2.8083993633   -0.2449874874
     C     3.9981285104    1.4648603333   -0.0433854559
     O     0.4388229457    1.6025132062   -0.6953485779
     H     1.3066945181    4.0717048706   -1.0466829892
     H     4.0638945721    5.0161554543   -3.0182618951
     H     3.6856641207    6.6885046440   -2.5323918854
     H     2.4145577774    5.4414125375   -2.5536037984
     H     3.2156057275    5.9486746002    1.1268112110
     H     1.9049644815    6.0194438308   -0.0538014365
     H     3.2027496616    7.2349111435   -0.1066721982
     H     5.5747197591    5.3184464385    0.4117795970
     H     5.5024761746    6.6067553490   -0.8108160663
     H     5.9248920341    4.9476407219   -1.2838518010
     H     5.4209132955    3.0742314336   -0.1119855675
     H     4.7447487177    0.7207722536    0.2366753211
