17
-3.4917783172050565e+02 frame 71   xyz file generated by TeraChem
    Fe    -0.0106555496   -0.0063440874    0.0079641113
     N     1.8763141311   -0.8203041723    0.1472164307
     H     2.4130746259   -0.5083753624    0.9632387463
     H     1.8668287098   -1.8453997273    0.2058571726
     H     2.4720802004   -0.6009583411   -0.6585344504
     N    -0.2874636793   -0.7812988780   -1.8812625981
     H     0.3113170490   -0.3450627247   -2.5922397903
     H    -0.0874850357   -1.7858920372   -1.9381204239
     H    -1.2434376033   -0.6837523701   -2.2385751736
     N    -1.3675503737    1.5114368981   -0.3084454779
     H    -1.2131600335    2.0085073270   -1.1924123618
     H    -2.3391608937    1.1819548263   -0.3469071697
     H    -1.3569238684    2.2422195944    0.4103884997
     N    -0.2219869690    0.0924851624    2.0516213427
     H     0.2344606221    0.9099860174    2.4734672011
     H    -1.2032109642    0.1490895915    2.3446236191
     H     0.1568377892   -0.7184840643    2.5521704397
