25
-5.2567250403453943e+02 frame 38   xyz file generated by TeraChem
    Co     0.1677933396   -0.1644968869   -0.1519558461
     N    -0.4491706420   -1.7991941830   -1.3682236512
     N    -1.4706653594   -0.7742534613    1.0618794259
     C    -2.3143844042   -1.7184349806    0.2485247478
     C    -1.4054118193   -2.6348348487   -0.5602039228
     H    -1.9992490837   -3.2870798659   -1.2070225065
     H    -0.8060202749   -3.2719310526    0.0979211921
     H    -2.9432200157   -1.1103075706   -0.4095838152
     H    -2.9749569812   -2.3073465421    0.8914378508
     H    -0.9276116197   -1.4629332726   -2.2108609258
     H     0.3037941221   -2.3956580935   -1.7197349800
     H    -1.1379914029   -1.2608656514    1.9012693514
     H    -2.0604465615   -0.0184747721    1.4186667717
     N     2.2574670674   -0.0157270255   -0.5312759358
     N     0.3206858862    1.9267652833    0.2177879601
     C     1.7852649243    2.2450538781    0.3526989495
     C     2.5755342458    1.4478184153   -0.6777887371
     H     3.6475548366    1.6292074324   -0.5565748230
     H     2.3014603845    1.7430853004   -1.6958129299
     H     2.0867959440    1.9772685723    1.3705396929
     H     1.9664164536    3.3161795779    0.2235405401
     H     2.7989510289   -0.4004082712    0.2497468773
     H     2.5927142362   -0.5196653137   -1.3556264424
     H    -0.0693615204    2.4640780282   -0.5634902397
     H    -0.1775092542    2.2666750917    1.0437381448
