38
-2.0543294845040309e+03 frame 79   xyz file generated by TeraChem
    Mn     0.2384795315   -0.0924499430   -0.3771635970
     C     5.0370645971    0.7007188006    0.3831148383
     C     4.2291566293    1.6367894598   -0.2945132809
     C     2.8938983414    1.3513363496   -0.5048402012
     N     2.3034242233    0.1994406395   -0.0939030016
     C     3.0814079788   -0.6994705354    0.5643246553
     C     4.4232496874   -0.4950186676    0.8152007015
     S     6.7356397385    0.9230706853    0.7255045844
     H     4.6321126342    2.5776849703   -0.6538404678
     H     2.2574084436    2.0664464777   -1.0180402602
     H     2.5955849667   -1.6088757713    0.9045383737
     H     4.9878294024   -1.2544017404    1.3464700046
     H     6.8630935064    2.1424997907    0.1618179597
     C    -1.6705254546   -3.4669758987   -3.4078842739
     C    -0.3132670175   -3.5213638051   -3.0239423600
     C     0.1976528753   -2.5342789497   -2.2039839692
     N    -0.5425756869   -1.4893729411   -1.7521511379
     C    -1.8533853410   -1.4414649774   -2.1121705910
     C    -2.4423180405   -2.3853424310   -2.9269726556
     S    -2.4539208703   -4.6466078241   -4.4254225104
     H     0.3406381249   -4.3187173370   -3.3608034393
     H     1.2399762380   -2.5626501429   -1.9006338287
     H    -2.4312167717   -0.6081664108   -1.7250834321
     H    -3.4912788161   -2.2862052054   -3.1867722168
     H    -1.3830851038   -5.4464613289   -4.6128885686
     C    -1.9077232439    4.3089861563   -1.0667743401
     C    -1.4762999446    3.5330362548   -2.1626778734
     C    -0.8979519852    2.2988504818   -1.9345633552
     N    -0.7142400628    1.7768264575   -0.6940341296
     C    -1.1304537703    2.5266118681    0.3611180600
     C    -1.7183922310    3.7675238944    0.2226811870
     S    -2.6572648619    5.8820806209   -1.1998795617
     H    -1.5896827351    3.8830418691   -3.1833077051
     H    -0.5675100862    1.6909974408   -2.7728454983
     H    -0.9871513871    2.0965397063    1.3477086365
     H    -2.0317148089    4.3094875951    1.1091008570
     H    -2.6262288683    5.9683574662   -2.5459783592
     I    -0.7331986339   -1.5274459571    1.8090355784
