53
-1.4425611497873424e+03 frame 84   xyz file generated by TeraChem
    Co    -0.0057585184   -0.0101392251    0.0213803991
     C     1.5535165509    0.8057783790    0.8360894299
     N     2.4969857605    1.2920626044    1.3165145565
     C     3.6169670976    1.8675592337    1.8846776864
     C     4.1398041593    3.0438456408    1.3199595545
     C     5.2670694868    3.6125489198    1.9001241908
     C     5.8584939883    3.0168515024    3.0204348569
     C     5.3264719076    1.8450791797    3.5715824623
     C     4.1997626972    1.2579101615    3.0092166497
     H     3.6659971581    3.4894338992    0.4518326610
     H     5.6864379529    4.5208879956    1.4804132913
     H     5.7922635274    1.3903454839    4.4395378480
     H     3.7729569927    0.3487611401    3.4190379628
     H     6.7392206215    3.4681542823    3.4664388555
     C    -1.5670213023   -0.8210766754   -0.7942403204
     N    -2.5115230577   -1.2994382160   -1.2805450198
     C    -3.6326095723   -1.8654722725   -1.8560160917
     C    -4.2174723698   -2.9888583509   -1.2462329897
     C    -5.3451592754   -3.5492363752   -1.8334097965
     C    -5.8761355359   -2.9973064467   -3.0052867477
     C    -5.2826427018   -1.8781231436   -3.6010470511
     C    -4.1543584091   -1.2999069448   -3.0323791964
     H    -3.7914515532   -3.3993177249   -0.3370033023
     H    -5.8125428390   -4.4162916763   -1.3785962226
     H    -5.7012196234   -1.4577733785   -4.5094556529
     H    -3.6789585716   -0.4326918560   -3.4780493276
     H    -6.7576420512   -3.4417764891   -3.4565820505
     C    -0.0043385528    1.3381730193   -1.3265143327
     N    -0.0031434353    2.1605680832   -2.1488168245
     C    -0.0017125696    3.1447225028   -3.1325110681
     C    -0.8713876882    4.2367105902   -3.0000270821
     C    -0.8602030538    5.2146563979   -3.9901066316
     C     0.0011275735    5.0987916816   -5.0857110056
     C     0.8610329503    4.0020082917   -5.2008557191
     C     0.8693113788    3.0114775208   -4.2233236539
     H    -1.5320716521    4.3104576008   -2.1425273616
     H    -1.5249044110    6.0681774937   -3.9055080734
     H     1.5268566974    3.9168080705   -6.0534426781
     H     1.5288479682    2.1530480117   -4.2965075266
     H     0.0022316766    5.8664931776   -5.8530346592
     C    -0.0070834865   -1.3574412114    1.3677453156
     N    -0.0084192242   -2.1803511306    2.1899344575
     C    -0.0102109174   -3.1639886211    3.1728022552
     C     0.0893846142   -4.5086334334    2.7871458866
     C     0.0880266434   -5.4836964076    3.7797781070
     C    -0.0139616031   -5.1186515437    5.1260445060
     C    -0.1140448925   -3.7724790882    5.4919116813
     C    -0.1115785902   -2.7791422618    4.5175787499
     H     0.1724130874   -4.7724073206    1.7379924989
     H     0.1680045231   -6.5297177319    3.5023874497
     H    -0.1955097157   -3.4956547636    6.5379715883
     H    -0.1931460682   -1.7300059545    4.7818681484
     H    -0.0154508434   -5.8865014027    5.8932562370
