11
-2.0198040750599059e+03 frame 53   xyz file generated by TeraChem
    Cr     0.4693521913   -0.2310369726   -0.7298601383
     S     2.7177937672    0.1286577132   -1.0320336303
     C     3.0743066530    1.2491117017    0.1927775093
     N     3.3729829377    2.0161956396    1.0234722582
     S     0.4798573058   -1.7919136649   -2.4209158351
     C    -1.1554733396   -2.1739197931   -2.6646612383
     N    -2.2636133275   -2.4779696018   -2.8819035380
     S    -0.9978067750    1.3473980511   -1.4758618030
     C    -1.0666842063    2.4225318779   -0.1639470712
     N    -1.1532951887    3.1975756366    0.7072718349
    Cl    -0.3799522643   -1.1188891898    1.0686831473
