13
-5.5648260521270413e+02 frame 60   xyz file generated by TeraChem
    Co     0.1593188963   -0.2410648763    0.0768197326
     C     1.4872021606   -1.5415482228    0.6263770052
     N     2.2398217321   -2.3355645519    1.0433513935
     C     1.0221831193    0.0009514816   -1.5766162981
     N     1.5583285639    0.1537321861   -2.6051094364
     C    -1.1976770808    1.0495717039   -0.4164098674
     N    -2.0564643610    1.8159006385   -0.6308192417
     C    -1.2470891787   -0.6387362444    2.8146951428
     N    -0.7289529014   -0.4888180411    1.7930249844
     C    -1.8967705133   -0.8293820538    4.1047045382
     H    -2.9662579036   -1.0158411725    3.9638260770
     H    -1.7766181535    0.0678656580    4.7204085601
     H    -1.4520670399   -1.6809923886    4.6293995986
