61
-1.8604096499097891e+03 frame 130   xyz file generated by TeraChem
    Fe    -0.2505692183    0.3040132245    0.0130597540
     C     1.5199773073   -0.5524890681   -0.2467570732
     N     2.5448467310   -1.0844687085   -0.3675759326
     C     4.9533246757   -0.9277625321   -0.9605740445
     C     5.1777132725   -0.7064051531   -2.3251586636
     C     6.2859324929    0.0565262463   -2.7552181741
     C     7.1742099728    0.5914284140   -1.8232054941
     C     6.9598588460    0.3672279275   -0.4626138412
     C     5.8488442983   -0.3930424677   -0.0302896459
     H     4.5142052202   -1.1403797266   -3.0690581496
     H     6.4486912962    0.2076720353   -3.8177244011
     H     7.6530766472    0.7621407344    0.2735643599
     H     5.7150248794   -0.5780716794    1.0324459015
     H     8.0338084700    1.1653296329   -2.1536232943
     C     3.8019032269   -1.8034641069   -0.5021760786
     H     4.0017673205   -2.2484399241    0.4773106768
     H     3.6102849393   -2.6175586185   -1.2083428411
     C    -0.8238090057   -0.4661735829   -1.7368572174
     N    -1.1442017833   -0.9182011365   -2.7568068613
     C    -2.7385528188   -2.3445534427   -4.0223507806
     C    -2.6472647155   -3.7015596892   -3.6859490496
     C    -3.7926562958   -4.5260898543   -3.7201941410
     C    -5.0266171934   -3.9979265113   -4.0968524940
     C    -5.1213221220   -2.6481150557   -4.4397548871
     C    -3.9766575492   -1.8203500256   -4.4027576851
     H    -1.6887689799   -4.1386080446   -3.4171875495
     H    -3.7002482478   -5.5775069931   -3.4667112070
     H    -6.0720067958   -2.2280636899   -4.7530765919
     H    -4.0659903749   -0.7788565015   -4.7010357905
     H    -5.9044714241   -4.6344859662   -4.1379508667
     C    -1.4960676127   -1.4745844142   -4.0539073523
     H    -1.6236518081   -0.6182950180   -4.7233529799
     H    -0.6184431670   -2.0362518339   -4.3890428800
     C    -1.9929839598    1.2214824938    0.2621690903
     N    -3.0073496946    1.7727279440    0.3852886180
     C    -4.2374939354    3.7661459324    1.2218118971
     C    -3.8439897158    4.9279199370    0.5398285996
     C    -3.8523487517    6.1796427142    1.1915027702
     C    -4.2633514105    6.2746880561    2.5188843736
     C    -4.6640145560    5.1220704427    3.1999581538
     C    -4.6495694916    3.8659784807    2.5508774253
     H    -3.5505703922    4.8785824658   -0.5060179587
     H    -3.5539108366    7.0678667981    0.6436018348
     H    -5.0029854880    5.1847830279    4.2293381328
     H    -4.9863213085    2.9857977279    3.0923276368
     H    -4.2865953898    7.2382181147    3.0174870379
     C    -4.2968553777    2.4337942665    0.4994510390
     H    -4.6664811135    2.5469160250   -0.5250101282
     H    -4.9536975312    1.7272667840    1.0162460768
     C     1.1255983828    1.6620348891    4.4067288199
     C     0.1328213255    0.6796114812    4.2091303449
     C    -0.2545238198    0.3470654950    2.9250570889
     N     0.2927286196    0.9120903715    1.8207275415
     C     1.2520387528    1.8557882580    2.0006520632
     C     1.6788462202    2.2562226088    3.2491927401
     S     1.7082110018    2.1908273680    5.9644155706
     H    -0.3412068911    0.1769337456    5.0455895490
     H    -1.0263591907   -0.3997175496    2.7626561009
     H     1.6786460213    2.2985884638    1.1055322939
     H     2.4421426633    3.0238659710    3.3265475100
     H     0.9510329339    1.3650013693    6.7159370105
