11
-2.8111125149052191e+02 frame 77   xyz file generated by TeraChem
    Co     0.4098424636   -0.3941179598   -0.4305788470
     N     1.7969244826    0.5247692451    0.6936136299
     H     2.1092960460    1.3973641335    0.2659533744
     H     1.3855317087    0.7329708279    1.6043996635
     H     2.5919806290   -0.0929594948    0.8603581080
     N    -0.9630301783   -1.3268344443   -1.5633017667
     H    -0.4909145791   -1.6950963056   -2.3903431141
     H    -1.3832798906   -2.1103042840   -1.0621252301
     H    -1.6833670040   -0.6800625840   -1.8867985685
     I     0.1109195584    1.7730030787   -1.9406637017
     I     0.6999087643   -2.5464040784    1.1053501873
