9
-2.0261879103648980e+03 frame 33   xyz file generated by TeraChem
    Fe    -0.0771892706   -0.2248534045   -0.0901805960
     N     1.7923642529    0.0458200967    0.1967833979
     C     2.9459178188    0.2482309742    0.4170143661
     S     4.5079740359    0.5158358522    0.7085869303
     N    -0.3405999922   -1.3266976682   -1.6274200892
     C    -0.5660071487   -2.0170566505   -2.5721251358
     S    -0.8627547810   -2.9507070552   -3.8514668414
    Cl    -1.0800341261    1.7708479830   -0.4199021574
    Cl    -0.9990302451   -1.1884474049    1.7302786707
