29
-9.5620797419261044e+02 frame 94   xyz file generated by TeraChem
    Fe    -0.0125957102   -0.6126215909   -0.2501019621
     O     1.8842443546   -0.4601869472    0.0274341844
     N     3.0070564915    1.3329174820    1.2407635503
     C     2.4799415094    0.4583873609    0.6544163288
     O    -1.5303871927   -1.4600854679   -1.0724734678
     N    -3.8837465568   -0.8952753862   -0.7705763154
     C    -2.7513361841   -1.1733323127   -0.9335186895
     C    -1.0125693050    3.8820321113   -1.3665947298
     C     0.2572677853    3.3519375465   -1.5881200417
     C     0.5122920818    2.0351116601   -1.2246172675
     N    -0.4303967850    1.2448792876   -0.6652202399
     C    -1.6643044618    1.7555503154   -0.4601963742
     C    -1.9870999172    3.0653978088   -0.7949983184
     H    -1.2390850500    4.9091343763   -1.6371720759
     H     1.0515004842    3.9438646368   -2.0298804170
     H     1.4895436968    1.5912025742   -1.3678042277
     H    -2.4085573780    1.0823274555   -0.0504192277
     H    -2.9945309270    3.4239452256   -0.6134211413
     C    -1.4126839948   -0.8033915918    4.2629687838
     C    -0.4915241354    0.1594490843    3.8525262995
     C    -0.1087712209    0.2076641298    2.5170472257
     N    -0.6071232681   -0.6484509476    1.5987385953
     C    -1.4960084082   -1.5852784045    1.9964344204
     C    -1.9185138479   -1.6924566217    3.3159817679
     H    -1.7274826399   -0.8619527153    5.3006861452
     H    -0.0608232667    0.8676247710    4.5522118737
     H     0.6278454292    0.9238959860    2.1687156275
     H    -1.8703795699   -2.2459756630    1.2241616014
     H    -2.6373102857   -2.4594401774    3.5833484478
