38
-7.7389108510092990e+02 frame 69   xyz file generated by TeraChem
    Fe    -0.1461818132   -0.0543520129    0.1881474676
     C     1.9968617488    0.2857149148   -0.3773984142
     N     3.1356208452    0.3856175011   -0.6036956195
     C     5.2060276984    1.2595599558   -1.7414300235
     C     4.5096594663    2.1377407473   -2.5776016626
     C     5.2268267249    2.9255857955   -3.4682835605
     C     6.6734477676    2.8424779351   -3.5354478995
     C     7.3754001538    1.9605258421   -2.6978955342
     C     6.6613543364    1.1777571270   -1.8134146275
     H     3.4284963533    2.2106100585   -2.5384759820
     H     4.7132565669    3.6180192242   -4.1297664855
     H     8.4579990803    1.8964479076   -2.7468072644
     H     7.1848959871    0.4870544294   -1.1559021019
     H     7.2044795005    3.4731473444   -4.2445713499
     C     4.5678507693    0.3449717606   -0.7219328669
     H     4.9784812103    0.5701840747    0.2741219754
     H     4.8451323602   -0.6968135229   -0.9436743246
     C    -2.3102014668   -2.0562749481   -0.8040379826
     N    -0.9606357745   -1.4801402912   -1.1549365320
     H    -1.0242148455   -1.0880554114   -2.0998024468
     H    -0.3021134089   -2.2589954436   -1.2578161144
     H    -3.0396839412   -1.2471919497   -0.7372555477
     H    -2.2422195166   -2.5708755939    0.1552015905
     H    -2.6371580689   -2.7665009533   -1.5672292646
     C    -2.5417637504    1.9030194740    0.5712919355
     N    -1.2200051900    1.7619067709   -0.1398860334
     H    -0.6313293290    2.5550623808    0.1333013275
     H    -1.3825038020    1.9188622690   -1.1396393078
     H    -2.3753524131    1.8561035960    1.6491531104
     H    -3.2015851137    1.0888862157    0.2663894185
     H    -3.0177576469    2.8561169882    0.3284723207
     C    -1.1528935748   -1.2891379926    2.8397196388
     N    -0.0098820120   -0.4984969702    2.2475076864
     H     0.8577481909   -0.9989109335    2.4650440082
     H     0.0728770520    0.3765023226    2.7765818175
     H    -1.1664410217   -2.2854803845    2.3951096303
     H    -2.0927672045   -0.7760734784    2.6289934512
     H    -1.0317389249   -1.3842927954    3.9213189172
