11
-1.6296889141691506e+03 frame 8   xyz file generated by TeraChem
    Co     0.1492778020    0.1107306510   -0.3933227869
     S     2.4687757400   -0.2185603266   -0.7420748996
     C     3.3906975966    0.7321837604    0.3160684259
     N     4.1042246386    1.3736015661    1.0174803246
     S    -0.8451849171   -0.8990295789   -2.3056961698
     C    -0.3835700611   -2.5220160693   -2.4635476844
     N    -0.1019477387   -3.6627792764   -2.6428620174
     S    -0.2339673050    2.4295646810   -0.7526067335
     C    -1.8822065605    2.7776506362   -0.9363123925
     N    -3.0169906256    3.1007434963   -1.0798312522
     I    -0.6951993468   -0.7733450506    1.9939466378
