29
-8.1392962528612929e+02 frame 59   xyz file generated by TeraChem
    Fe     0.2747486105   -0.2714594594   -0.3570079683
     O    -0.8525603177   -1.1720407799   -1.6018315104
     C    -1.4899911519   -2.2623510510   -1.3920951558
     C    -2.3288415901   -2.7444734276   -2.5534742535
     C    -1.4494407340   -3.0029112697   -0.2007178710
     C    -0.6892623357   -2.6347430778    0.9199240732
     O     0.0435626158   -1.5876077275    1.0010307667
     C    -0.6962748206   -3.5040451721    2.1563774051
     H    -1.6793433576   -2.9348019704   -3.4158953390
     H    -3.0290601539   -1.9551054950   -2.8480427273
     H    -2.8867672614   -3.6540838530   -2.3183593200
     H    -1.3545658329   -4.3701168907    2.0551134695
     H    -1.0133643577   -2.9066432688    3.0184991975
     H     0.3234998052   -3.8482372894    2.3632147437
     H    -2.0326859576   -3.9143546369   -0.1446576166
     O     1.8451127835    0.3429284747    0.5367114130
     C     2.3637787816    1.5104003542    0.4593391047
     C     3.5973397939    1.7183998887    1.3077322967
     C     1.8703025794    2.5582169224   -0.3332219850
     C     0.7321734762    2.4413851601   -1.1447487845
     O     0.0134260928    1.3870226594   -1.2560142414
     C     0.2701474695    3.6168931037   -1.9749708695
     H     4.3562673579    0.9769435652    1.0335021810
     H     3.3461640032    1.5446915258    2.3602692589
     H     4.0173559766    2.7212357764    1.1987603498
     H     0.9013889612    4.4987849260   -1.8412773837
     H    -0.7623425578    3.8675415277   -1.7063793040
     H     0.2655485642    3.3337122012   -3.0336663447
     H     2.3953477393    3.5057886725   -0.3177601588
