9
-2.0261397615824881e+03 frame 22   xyz file generated by TeraChem
    Fe    -0.0268780226   -0.2050259097   -0.0889953869
     N     1.9400639737    0.1040383272    0.2284082031
     C     3.0924228474    0.2833610600    0.4120187286
     S     4.7031754916    0.5311859840    0.6642429021
     N    -0.5002143265   -1.3790473060   -1.6438252088
     C    -0.7806281373   -2.0665149862   -2.5612643054
     S    -1.1663679853   -3.0278833989   -3.8447413333
    Cl    -1.0230097540    1.8940132270   -0.5004557339
    Cl    -0.9179256328   -1.2611524685    1.8261796629
