21
-1.2971283882747266e+03 frame 42   xyz file generated by TeraChem
    Fe    -0.1456634164   -0.0591973800   -0.0323178054
     N     1.6999062143   -0.0425363560   -0.0149125640
     C     2.8852500520   -0.2156092697   -0.1886782869
     S     4.4358489471   -0.4225899541   -0.3956380910
     N    -1.1714290462   -1.1426807749   -1.1193490270
     C    -1.5929618579   -1.9438954977   -1.9232744307
     S    -2.1679646226   -2.9812392017   -2.9640166756
     C    -1.2280475964    2.8934510325    0.2969673414
     N    -0.6518259793    1.9171991472   -0.6731331232
     H     0.2106539184    2.3054779254   -1.0631664996
     H    -1.2885857646    1.8105848112   -1.4660830834
     H    -0.5313001903    3.0272845466    1.1270030922
     H    -2.1741051578    2.5040548375    0.6784038037
     H    -1.4088006516    3.8635672142   -0.1743273699
     C    -1.2414117084    0.2397724487    2.9256008109
     N    -0.6509096221   -0.7132871006    1.9409910240
     H    -1.2778053104   -1.5129220830    1.8258712386
     H     0.2150497660   -1.0969204701    2.3279471586
     H    -2.1933549646    0.6100653199    2.5398766302
     H    -0.5573633945    1.0791075712    3.0658377266
     H    -1.4142389054   -0.2426165138    3.8916625547
