38
-9.2390469878340866e+02 frame 40   xyz file generated by TeraChem
    Fe     0.0531364832    0.0662129992   -0.0925850267
     N     1.9279963339    0.8457112287    0.2744628181
     H     1.8664748076    1.7849799794    0.6846364196
     H     2.5546052560    0.3192478857    0.8937450038
     H     2.4563987773    0.9762792720   -0.5990588017
     C    -1.8174320086   -3.3407415801   -2.6813971293
     C    -0.4571421482   -3.2748043836   -2.3584879621
     C    -0.0053985764   -2.2069937029   -1.5966256187
     N    -0.8502931898   -1.2266747832   -1.1688282531
     C    -2.1732052546   -1.2897912466   -1.4718081020
     C    -2.6820466181   -2.3336010492   -2.2307452819
     H    -2.1996891683   -4.1665664774   -3.2757166088
     H     0.2463909680   -4.0310331326   -2.6925373633
     H     1.0485192292   -2.1164724502   -1.3324118998
     H    -2.8073895510   -0.4906663247   -1.1042447514
     H    -3.7423539590   -2.3558628442   -2.4633159838
     C    -1.6856878784    4.1962914338   -1.3794486797
     C    -1.4753117983    3.1790408354   -2.3160595440
     C    -1.0286928662    1.9371280150   -1.8818522622
     N    -0.7837463034    1.7026424053   -0.5628080935
     C    -0.9788306167    2.6866918346    0.3561853099
     C    -1.4350302344    3.9410232255   -0.0254066788
     H    -2.0402328567    5.1730401634   -1.6981990972
     H    -1.6608518171    3.3334974122   -3.3747787163
     H    -0.8707553083    1.1203452410   -2.5788182170
     H    -0.7697859175    2.4539716724    1.3955984393
     H    -1.5855275587    4.7036471568    0.7328778011
     C    -1.3406384108   -1.4464887179    4.0830038876
     C    -2.2154496971   -0.6823714025    3.3019186542
     C    -1.7850882327   -0.1999350190    2.0736296732
     N    -0.5241329024   -0.4429575792    1.6306490222
     C     0.3327484120   -1.1909647156    2.3772612048
     C    -0.0505431881   -1.7067518973    3.6078530778
     H    -1.6597797465   -1.8344175092    5.0468749929
     H    -3.2257662816   -0.4616326613    3.6327648330
     H    -2.4351378531    0.3890866711    1.4366921432
     H     1.3291836097   -1.3736988799    1.9860429678
     H     0.6608878946   -2.2930345911    4.1816976041
