75
-2.5121117710797826e+03 frame 69   xyz file generated by TeraChem
    Mn    -0.4367234218    0.1545173883    0.4987127721
     O     1.3475858651    0.4257541829    0.8279416740
     N     2.9827238778    2.0302593375    1.6655602428
     C     2.1997411127    1.2525879633    1.2660443213
     O    -1.5660328004   -0.9198707522   -0.4792257730
     N    -3.9114717694   -1.5405410242   -0.7305544497
     C    -2.7827118412   -1.2394829840   -0.6187450408
     C     0.1926142835    4.1388271938    0.9120377905
     C    -0.9710275378    3.8400162757    0.1676296624
     P    -1.0486626168    2.3195257339   -0.8004124653
     C    -2.6648016612    2.1056752102   -1.5623733279
     C    -3.8093346077    2.0032321542   -0.7400514726
     C    -5.0660771229    1.8696001700   -1.3199294178
     C    -5.1936888416    1.8168922208   -2.7120896857
     C    -4.0619021223    1.9035464747   -3.5292937406
     C    -2.7971220877    2.0405338261   -2.9646724918
     C     0.2901649764    2.1771992369   -1.9983644421
     C     0.4121281267    0.9704233475   -2.7280094384
     C     1.4557826504    0.8165197208   -3.6341808452
     C     2.3878714288    1.8468249013   -3.8116691340
     C     2.2726036073    3.0382234661   -3.0876602661
     C     1.2353474391    3.2076306658   -2.1744247678
     C    -2.0535499907    4.7458196289    0.1605603652
     C    -1.9583782012    5.9384991420    0.8721362488
     C    -0.8009204958    6.2361143283    1.5987429601
     C     0.2720716385    5.3372617550    1.6148362772
     H     1.0433175282    3.4649632931    0.9284920086
     H    -3.7181375641    2.0350102161    0.3426414291
     H    -5.9462403570    1.7940265205   -0.6898384461
     H    -6.1759873537    1.7042678046   -3.1603280575
     H    -4.1658776912    1.8728348482   -4.6093122848
     H    -1.9269555399    2.1238364570   -3.6059976118
     H    -0.3127539909    0.1698339205   -2.6025543109
     H     1.5450513999   -0.1038795105   -4.2026216083
     H     3.2036045881    1.7209811520   -4.5170323068
     H     2.9897254491    3.8389785163   -3.2379858015
     H     1.1485300328    4.1376316990   -1.6240069045
     H    -2.9464335037    4.5349534338   -0.4164189916
     H    -2.7833135653    6.6437027941    0.8480140270
     H    -0.7314537692    7.1719930524    2.1450190841
     H     1.1772046780    5.5734130430    2.1658797689
     C     0.4992624955   -2.6270848435    2.3168856497
     C    -0.7637737179   -2.1659424746    2.7606369717
     P    -1.0218582406   -0.3903591740    2.9334066595
     C    -2.7027664851    0.0388328182    3.4296465965
     C    -3.7990167185   -0.3344841578    2.6204198970
     C    -5.0945833587   -0.0452147889    3.0385568832
     C    -5.3111938810    0.6247301246    4.2484102278
     C    -4.2278052436    1.0059053140    5.0462449900
     C    -2.9253397470    0.7243670149    4.6432949080
     C     0.1898503954    0.3793802329    4.0192639298
     C     0.2440613703    1.7892663924    4.0820336494
     C     1.1469986902    2.4082730099    4.9388867947
     C     2.0082649435    1.6352687011    5.7251870452
     C     1.9640256576    0.2390444421    5.6588523555
     C     1.0653992767   -0.3959856945    4.8058937447
     C    -1.8067925966   -3.0845311466    2.9982060013
     C    -1.5769121224   -4.4453032463    2.8175150156
     C    -0.3251852705   -4.8989340622    2.3869134350
     C     0.7116974896   -3.9901020576    2.1413502708
     H     1.3100468436   -1.9286311634    2.1285246233
     H    -3.6596197037   -0.8681795557    1.6862617516
     H    -5.9345874735   -0.3522226609    2.4231702632
     H    -6.3243274210    0.8431395681    4.5723607911
     H    -4.3975910816    1.5125643921    5.9911744709
     H    -2.0943837097    1.0099468337    5.2779418944
     H    -0.4207640829    2.3943438095    3.4709118565
     H     1.1879036714    3.4914226664    4.9905129577
     H     2.7163450957    2.1221191392    6.3885453500
     H     2.6262300691   -0.3569616054    6.2788851844
     H     1.0261174282   -1.4790228207    4.7728350459
     H    -2.7760500694   -2.7431588887    3.3437922169
     H    -2.3735444655   -5.1544727005    3.0189701513
     H    -0.1560790249   -5.9618488024    2.2442093596
     H     1.6834094949   -4.3460740359    1.8137710420
