15
-6.3425195392231501e+02 frame 69   xyz file generated by TeraChem
    Cr     0.1015504301   -0.3411127584   -0.1703387898
     C     4.8864291802    0.2097028901    0.1840462851
     C     4.1549786033    0.8609743755   -0.8094235667
     C     2.7758387778    0.6951931010   -0.8490738361
     N     2.1254806925   -0.0818732111    0.0418606824
     C     2.8270388817   -0.7015595378    1.0120176268
     C     4.2080463841   -0.5817503636    1.1111550992
     H     5.9656048594    0.3196278357    0.2369639905
     H     4.6393955943    1.4941357214   -1.5451595447
     H     2.1488525068    1.1859455343   -1.5846881625
     H     2.2462099153   -1.2890476794    1.7137382895
     H     4.7349657707   -1.0992850490    1.9057990483
     F    -0.4137689487   -1.5271887396   -1.3627243503
     F    -0.1089630842    1.2081786696   -0.9693926891
     F    -0.0760297083   -0.6589658091    1.5326309319
