52
-1.7269739432477077e+03 frame 140   xyz file generated by TeraChem
    Co    -0.9688531153   -0.2973462656    0.0979365407
     S     1.3233046603   -0.6455984172    0.5246952315
     C     1.2042532613    0.5474542971    1.7020860815
     N     1.0489265757    1.3883687556    2.5093371634
     C    -1.5571126437   -1.6082026656   -1.3609697982
     N    -1.8252773017   -2.3702310268   -2.1936315117
     C    -3.6449597397   -3.4877013659   -3.4229392175
     C    -4.3439498043   -4.4586621034   -2.6957023061
     C    -5.7246019113   -4.6298634232   -2.8892486113
     C    -6.4066359492   -3.8335832764   -3.8089295402
     C    -5.7118228719   -2.8664314297   -4.5382940942
     C    -4.3308441017   -2.6930708319   -4.3459225823
     H    -3.8178564018   -5.0973820035   -1.9906014360
     H    -6.2536781244   -5.3935290899   -2.3278509245
     H    -6.2326920621   -2.2519226156   -5.2658786711
     H    -3.7966899603   -1.9491758073   -4.9315536743
     H    -7.4715472879   -3.9722670295   -3.9659423646
     C    -2.1499621437   -3.3234529962   -3.2351503384
     H    -1.6632262399   -2.9592161093   -4.1451257395
     H    -1.6699488449   -4.2641850531   -2.9477885652
     C    -1.0912185085    1.6915427529   -0.4170414031
     N    -1.0122091128    2.8351814579   -0.5949106512
     C     0.5796339555    4.6739608988   -0.3213398348
     C     1.0435814043    4.4231201806    0.9829403846
     C     2.3373191426    4.8240785909    1.3694270709
     C     3.1604448885    5.4921577241    0.4679021422
     C     2.6970730326    5.7522785858   -0.8260439272
     C     1.4065763842    5.3358959469   -1.2227850756
     H     0.4126906255    3.9136466058    1.7050904904
     H     2.6787373405    4.6114515702    2.3771623253
     H     3.3287463287    6.2746572712   -1.5377924843
     H     1.0675476352    5.5471669972   -2.2331631384
     H     4.1544293035    5.8115283922    0.7636406506
     C    -0.8230480281    4.2589539809   -0.7325324482
     H    -1.0284452378    4.5143224855   -1.7758654798
     H    -1.5915602422    4.7348077286   -0.1126697540
     C    -1.8940666771   -0.5979028623    1.9097025370
     N    -2.2654374457   -0.7126740181    3.0027106464
     C    -1.4020138513   -0.9990409830    5.2766188524
     C    -0.3960363468   -0.0153120102    5.3185971553
     C     0.7260025954   -0.1799937176    6.1525125576
     C     0.8394115248   -1.3098462526    6.9568613198
     C    -0.1638374984   -2.2847894022    6.9227899622
     C    -1.2831255849   -2.1309100712    6.0760232609
     H    -0.4715628129    0.8784500334    4.7061013553
     H     1.4944423496    0.5860451836    6.1651653917
     H    -0.0872374605   -3.1690184278    7.5478379308
     H    -2.0517525303   -2.8987108537    6.0650489376
     H     1.6975276114   -1.4363192366    7.6088894993
     C    -2.6256430545   -0.8100722578    4.3967558506
     H    -3.1682941941    0.1104914008    4.6401666669
     H    -3.3243104653   -1.6459885109    4.4922209225
