9
-1.3606347938407373e+03 frame 36   xyz file generated by TeraChem
    Mn     0.0173302901   -0.2139726737   -0.3342816223
     O     2.0133948530    0.0348719339   -0.1311991256
     N     3.6639641600    1.3289996643    1.0999900732
     C     2.8348125840    0.7171994374    0.5183579023
     O     0.0879270819   -1.5722852080   -1.8679589889
     N    -0.9760383158   -3.4211245246   -3.0337943204
     C    -0.4787070472   -2.5219280257   -2.4454761819
    Cl    -1.0297616306    1.8888856699   -0.7532439750
    Cl    -0.9551390951   -1.2300381797    1.5892929099
