9
-2.0261585640420185e+03 frame 44   xyz file generated by TeraChem
    Fe     0.0667836246   -0.1692246807   -0.0504960022
     S     2.3853595920    0.7903456904    0.4140827465
     C     3.6181884851   -0.3438376683    0.2051513320
     N     4.5291143320   -1.0771468262    0.0843564705
     S     0.4158096726   -1.2743257931   -2.2531177319
     C    -1.0858536219   -1.8267393875   -2.7978179984
     N    -2.0946126233   -2.2352376732   -3.2411712201
    Cl    -1.0488193313    1.8899246518   -0.3133858218
    Cl    -0.6173997151   -1.6987507372    1.5678370121
