30
-8.1543892193486329e+02 frame 77   xyz file generated by TeraChem
    Ni    -0.2395941257   -0.2283511674    0.0275626690
     C     1.9257994846   -2.4036345438    0.0386481911
     N     1.1127009703   -1.5812324735    0.0416042454
     C     2.9488342967   -3.4370091067    0.0342367854
     H     3.2264292417   -3.6896504095    1.0631176652
     H     3.8349282466   -3.0761734166   -0.4995197618
     H     2.5671034169   -4.3334251500   -0.4663579440
     C    -0.7298770526   -0.7191732566   -2.9953095715
     N    -0.5472386838   -0.5361060021   -1.8682297389
     C    -0.9607796218   -0.9510853786   -4.4123029764
     H    -0.0320552104   -1.2797365054   -4.8907831978
     H    -1.3025062766   -0.0262532075   -4.8891121783
     H    -1.7251183808   -1.7255553968   -4.5390791129
     C    -2.4119861011    1.9400045613    0.0361953073
     N    -1.5918385201    1.1246505374    0.0413174034
     C    -3.4443436694    2.9640066986    0.0296316900
     H    -3.4147582881    3.5140079707   -0.9171400749
     H    -3.2804056126    3.6626768341    0.8570432355
     H    -4.4282748592    2.4957066714    0.1432953096
     C     0.5321790965    0.5430211550    4.5826550484
     C    -0.4265180472   -0.3885071906    4.1781175676
     C    -0.6336383426   -0.5960023588    2.8198559935
     N     0.0719227020    0.0827580964    1.8908798433
     C     1.0011324857    0.9853000577    2.2704872470
     C     1.2557469592    1.2394672918    3.6124303723
     H     0.7125089075    0.7232996959    5.6380266843
     H    -1.0103366414   -0.9507013241    4.8990230888
     H    -1.3680103140   -1.3090209353    2.4590102400
     H     1.5395020574    1.5023131390    1.4825588515
     H     2.0091365717    1.9713269001    3.8833908414
