35
-9.3057659751495544e+02 frame 66   xyz file generated by TeraChem
    Cr    -0.1165110427    0.1905302593   -0.1427292169
     C     4.5026476536    0.4984594658    1.0326932334
     C     4.0931665276    0.6524158936   -0.2964052147
     C     2.7459729284    0.5345131284   -0.5991652762
     N     1.8162224499    0.2751330875    0.3569692422
     C     2.2121188790    0.1250445753    1.6491621573
     C     3.5467330948    0.2302254152    2.0145132337
     H     5.5522623451    0.5870010902    1.2964298880
     H     4.8057640057    0.8611665576   -1.0870488942
     H     2.3919263457    0.6500365553   -1.6207465416
     H     1.4323396030   -0.0834583723    2.3717751361
     H     3.8238983781    0.1026196682    3.0554642850
     C    -1.2862281808   -3.5599265206   -2.8048985848
     C    -0.0523908445   -3.5179929191   -2.1486796318
     C     0.2956351886   -2.3748179988   -1.4456813851
     N    -0.5218901716   -1.2907880394   -1.3933113356
     C    -1.7228451946   -1.3323790221   -2.0289222230
     C    -2.1335551836   -2.4496496952   -2.7397761009
     H    -1.5860154334   -4.4475524239   -3.3539112394
     H     0.6287810491   -4.3618472879   -2.1705533516
     H     1.2326655360   -2.3049674015   -0.9029269217
     H    -2.3507241786   -0.4505628680   -1.9482417247
     H    -3.1021042888   -2.4476422160   -3.2281863394
     C    -1.5018463725    4.1978983155   -2.3505240982
     C    -1.0133653103    3.1563806031   -3.1466818590
     C    -0.6288768816    1.9699403768   -2.5412557407
     N    -0.7059996636    1.7962721192   -1.1964563181
     C    -1.1761902724    2.8105915836   -0.4222523826
     C    -1.5860008960    4.0189001079   -0.9675049240
     H    -1.8137808651    5.1344466249   -2.8029937452
     H    -0.9343359465    3.2593110314   -4.2236732282
     H    -0.2537901622    1.1332210745   -3.1212198897
     H    -1.2322047866    2.6273306042    0.6479506561
     H    -1.9639929671    4.7997982736   -0.3164493107
     F    -0.8110343187   -0.0801744044    1.3934507225
