49
-1.4851128180284195e+03 frame 42   xyz file generated by TeraChem
    Fe     0.0126716152    0.0613749332   -0.0060630198
     C     4.8078668007   -0.5685435052   -0.7619283528
     C     4.0876093597    0.3892704444   -1.4950714621
     C     2.7292791982    0.5297702486   -1.2552102218
     N     2.0623664106   -0.2149399915   -0.3406686573
     C     2.7641284616   -1.1359000676    0.3657025191
     C     4.1225967278   -1.3452133866    0.1881844520
     C     6.2105315776   -0.7498125424   -0.9769422380
     H     4.5806470738    1.0095510358   -2.2352377840
     H     2.1491922004    1.2637979758   -1.8052797155
     H     2.2094094199   -1.7162278732    1.0969394317
     H     4.6438236527   -2.0936991939    0.7746146222
     N     7.3503028479   -0.8980575748   -1.1509153776
     C    -2.3574951822   -3.2712011607   -2.7105505488
     C    -1.0019822747   -3.4585754500   -2.3948594600
     C    -0.3516452153   -2.4933384610   -1.6401733934
     N    -0.9671904624   -1.3739650685   -1.1936629470
     C    -2.2738590973   -1.1949068541   -1.5049117902
     C    -3.0010441048   -2.1096065570   -2.2506142167
     C    -3.0687331744   -4.2412645579   -3.4853778790
     H    -0.4687532693   -4.3401990705   -2.7326935909
     H     0.6960628865   -2.6125877595   -1.3837640297
     H    -2.7432706870   -0.2858342665   -1.1401022399
     H    -4.0461764969   -1.9266589888   -2.4743950501
     N    -3.6474711840   -5.0290289178   -4.1143740340
     C    -1.7730976084    4.4821263106   -1.1192376848
     C    -1.4150400981    3.5701431086   -2.1271289679
     C    -0.9356709497    2.3233821571   -1.7583320547
     N    -0.7933129006    1.9431431491   -0.4651876642
     C    -1.1431809843    2.8237007149    0.5015971549
     C    -1.6329883677    4.0910519982    0.2221137932
     C    -2.2724659583    5.7802865865   -1.4543353388
     H    -1.5114387649    3.8323164151   -3.1749021565
     H    -0.6573216132    1.5948038423   -2.5143223998
     H    -1.0305350398    2.4931739594    1.5291514700
     H    -1.9016774818    4.7636911366    1.0289938330
     N    -2.6778661042    6.8348283056   -1.7277619488
     C    -0.7260186472   -0.6918296306    4.7792855258
     C    -1.5787848152   -1.2638041707    3.8205280480
     C    -1.3362614696   -1.0145043383    2.4781154389
     N    -0.3085593581   -0.2438774059    2.0469464028
     C     0.5132095745    0.3026128640    2.9776223759
     C     0.3423719091    0.1087871914    4.3393251846
     C    -0.9394042341   -0.9196933769    6.1754363674
     H    -2.4125626405   -1.8890782788    4.1198528226
     H    -1.9770999297   -1.4432408518    1.7143801399
     H     1.3335673309    0.9112199057    2.6080791041
     H     1.0233051952    0.5665326169    5.0483284897
     N    -1.1119919747   -1.1042413573    7.3101022717
