45
-1.0966572737180768e+03 frame 67   xyz file generated by TeraChem
    Mn    -0.1139788288   -0.0571022842    0.0714530839
     C     4.5748657119   -0.9761379281   -0.6050898130
     C     4.0709617866    0.3258800058   -0.6111634132
     C     2.7103127928    0.5216706744   -0.4039983099
     N     1.8522154376   -0.5060008851   -0.2000368432
     C     2.3455821691   -1.7665164401   -0.1959834021
     C     3.6938249642   -2.0385785433   -0.3919814299
     H     5.6332031326   -1.1596398590   -0.7627957990
     H     4.7179785964    1.1814427909   -0.7727785095
     H     2.2877209699    1.5235849816   -0.4011942209
     H     1.6285999122   -2.5645791018   -0.0309517480
     H     4.0407193830   -3.0663186589   -0.3786955142
     C    -1.7097597028   -2.3395394241   -3.8930935651
     C    -0.4438581262   -1.7518225690   -3.9237855850
     C     0.0146134979   -1.0766094251   -2.7990778514
     N    -0.7280808965   -0.9509692443   -1.6744513476
     C    -1.9604633110   -1.5162555429   -1.6562284410
     C    -2.4800279419   -2.2201713924   -2.7343879961
     H    -2.0897922872   -2.8790422819   -4.7551924843
     H     0.1860993407   -1.8164215723   -4.8044978733
     H     0.9954666581   -0.6157682591   -2.7829340477
     H    -2.5433660601   -1.3958863703   -0.7457839024
     H    -3.4686380129   -2.6608821963   -2.6640020508
     C    -2.2690257733    4.2825270831   -0.2732857695
     C    -2.3325908744    3.3783456466   -1.3350939113
     C    -1.7452792235    2.1286949814   -1.1903563328
     N    -1.1156598972    1.7433475822   -0.0527884871
     C    -1.0582641847    2.6296403177    0.9731989753
     C    -1.6163206005    3.8982919906    0.9000857995
     H    -2.7176898786    5.2675454565   -0.3586620529
     H    -2.8280580145    3.6344354039   -2.2654217133
     H    -1.7668399964    1.4025055382   -1.9942640411
     H    -0.5484619747    2.2929799331    1.8687057517
     H    -1.5402291814    4.5689909091    1.7491949115
     C    -0.4997554360   -0.9427297049    4.8145598953
     C    -1.6144714845   -0.7255243367    4.0012980466
     C    -1.4157199053   -0.4064777021    2.6652179670
     N    -0.1817349061   -0.3119098190    2.1083727479
     C     0.8924939878   -0.5267215329    2.9048053533
     C     0.7740006580   -0.8341482439    4.2542619743
     H    -0.6224470014   -1.1888683095    5.8648424769
     H    -2.6230877395   -0.7962638392    4.3940393892
     H    -2.2626336329   -0.2073652978    2.0136124721
     H     1.8617033880   -0.4418202769    2.4293577700
     H     1.6670273553   -0.9886286172    4.8503288124
