44
-2.1795067131706628e+03 frame 50   xyz file generated by TeraChem
    Co    -0.0955798043   -0.0528039156    0.0377730052
     C     2.8297493695    0.4328026159   -0.7993404016
     N     1.9842461377   -0.2046532572    0.2672516701
     H     2.2413457204    0.2151749173    1.1658046787
     H     2.2694284854   -1.1838644843    0.3639691587
     H     2.5722347561    1.4905810406   -0.8697323205
     H     2.6270726622   -0.0494359088   -1.7577008912
     H     3.8930531354    0.3330517296   -0.5681286620
     C    -1.7946185831   -3.6723322969   -2.7620626612
     C    -0.4441091957   -3.2710601535   -2.8485105391
     C     0.0005578441   -2.2288472009   -2.0532480059
     N    -0.7989356478   -1.5611893792   -1.1835824857
     C    -2.0980540795   -1.9474751851   -1.1007220315
     C    -2.6291616540   -2.9761046033   -1.8575824602
     S    -2.5039405513   -4.9709408816   -3.6904235812
     H     0.2543359085   -3.7584348379   -3.5209891188
     H     1.0359374905   -1.9087553082   -2.1140186020
     H    -2.7239544727   -1.4090909816   -0.3958426365
     H    -3.6767295809   -3.2372506645   -1.7439792967
     H    -1.3930935095   -5.3276800474   -4.3723817239
     C    -0.9629759156    4.3634056123   -1.8528975553
     C    -1.2403124474    3.1874428004   -2.5824617982
     C    -1.0113171243    1.9554668511   -1.9915053937
     N    -0.5291828715    1.8157014314   -0.7316437223
     C    -0.2669316205    2.9478554987   -0.0277114615
     C    -0.4633115490    4.2176729831   -0.5376404230
     S    -1.1975980591    5.9842595537   -2.4585440159
     H    -1.6268875908    3.2235842390   -3.5958096981
     H    -1.2175967528    1.0425116182   -2.5408515557
     H     0.1177711152    2.8205094886    0.9800168339
     H    -0.2289575026    5.0827842111    0.0750145010
     H    -1.6616491428    5.6492515256   -3.6828037631
     C    -2.0738304197   -0.6690805726    4.4693632184
     C    -2.4271629027    0.4434110650    3.6755866997
     C    -1.8554296210    0.5864866242    2.4223243501
     N    -0.9621226613   -0.2956779602    1.9072259953
     C    -0.6299087643   -1.3700054466    2.6683978910
     C    -1.1491364842   -1.5934439538    3.9304489962
     S    -2.6971066713   -0.9841470941    6.0696899326
     H    -3.1352079570    1.1888998134    4.0225539171
     H    -2.1210213434    1.4318729081    1.7962449565
     H     0.0779588707   -2.0749792169    2.2427788398
     H    -0.8392901422   -2.4717222540    4.4885165998
     H    -3.5064841118    0.0944718047    6.1601815505
