27
-1.7052147386142501e+03 frame 56   xyz file generated by TeraChem
    Mn     0.1944918148   -0.1428360999   -0.1056891743
     C     4.9031147119   -0.5942727649    0.4409749838
     C     4.3564367901    0.1482358576   -0.6187695961
     C     2.9796373441    0.2380201398   -0.7304163834
     N     2.1407581819   -0.3732711422    0.1431846033
     C     2.6655924376   -1.0837188800    1.1726721614
     C     4.0338834269   -1.2153774880    1.3504864648
     C     6.3222019955   -0.7126152213    0.5902505456
     H     4.9936072009    0.6520485250   -1.3363899891
     H     2.5200777423    0.8208700277   -1.5204452770
     H     1.9614519674   -1.5386612799    1.8574894423
     H     4.4164625861   -1.7898215658    2.1863309939
     N     7.4741888975   -0.8118270219    0.7080840247
     C    -1.7854830058   -2.5027030156   -3.7336856941
     C    -1.3127042954   -3.1830668483   -2.5994881563
     C    -0.7391467492   -2.4533315834   -1.5724767937
     N    -0.6120579712   -1.1038107331   -1.6285112540
     C    -1.0737389188   -0.4430171630   -2.7194642245
     C    -1.6616630199   -1.1059497544   -3.7852880726
     C    -2.3841702788   -3.2226909543   -4.8168543059
     H    -1.3976261433   -4.2605105723   -2.5175305288
     H    -0.3801554798   -2.9392662501   -0.6731587354
     H    -0.9720651837    0.6350807018   -2.7141043066
     H    -2.0210702357   -0.5433885252   -4.6393192097
     N    -2.8656914666   -3.8081424752   -5.6978539843
    Cl    -0.1011056409    1.9491694097   -0.4852917322
    Cl    -0.6873107830   -1.0819498742    1.6147822899
