26
-6.1651722648269867e+02 frame 12   xyz file generated by TeraChem
    Fe     0.3749240522    0.3571813160   -0.0047359392
     C     3.1454998452   -0.9266541368    0.1349779564
     N     2.0499656325   -0.5005433834    0.1699069060
     C     4.4901433103   -1.4387609808    0.1049866555
     H     4.9967209347   -1.2317292799    1.0638213630
     H     5.0541691603   -0.9610245997   -0.7156542417
     H     4.4695899547   -2.5306525580   -0.0638209802
     C    -1.2207520700   -1.4755458733   -1.8089083363
     N    -0.6318821862   -0.7847431720   -1.0664615822
     C    -1.9464298163   -2.3264437684   -2.7198727715
     H    -1.2371540641   -2.9134623098   -3.3287473640
     H    -2.5752676019   -1.7119063276   -3.3865414059
     H    -2.5908111059   -3.0191558953   -2.1508439689
     C    -0.6979174489    3.0939237452   -0.8250897541
     N    -0.3666362368    2.0303131045   -0.4499388597
     C    -1.0945684689    4.4038781823   -1.2709938425
     H    -0.9000244333    4.5089040154   -2.3524100165
     H    -0.5253135135    5.1751238454   -0.7218905872
     H    -2.1723861697    4.5537127293   -1.0792402338
     C    -0.1985861774   -1.0390802703    2.5337042680
     N    -0.3973373072    0.2410681936    1.7691424678
     H    -0.0034994700    1.0415160718    2.2968879419
     H    -1.4054771557    0.4348588933    1.6459415156
     H     0.8636398307   -1.1802786341    2.7465734462
     H    -0.6147484041   -1.8801596560    1.9705007863
     H    -0.7532414955   -0.9363577600    3.4834066071
