37
-1.0058167185443706e+03 frame 70   xyz file generated by TeraChem
    Cr    -0.0675684459    0.0058940847    0.0090727938
     O     1.9144938544   -0.3828792845   -0.1199763744
     C     2.8873290667    0.0546692925    0.8083079635
     C     4.0821084668    0.1312035913    0.1917873776
     C     3.8913381881   -0.2570282354   -1.1866440410
     C     2.5895675148   -0.5599162306   -1.3540383627
     H     2.5287491752    0.2016416941    1.8155038237
     H     5.0166868434    0.4146272272    0.6571491373
     H     1.9823027676   -0.9092874387   -2.1746798195
     H     4.6553677413   -0.3127588249   -1.9506831690
     O    -0.6153806280   -1.4491264209   -1.3120666856
     C    -0.1206043346   -2.7795518988   -1.3061358378
     C    -1.0437394521   -3.5913590261   -1.8557338678
     C    -2.1781623526   -2.7810138413   -2.2344530120
     C    -1.9018251008   -1.5075175160   -1.8960009367
     H     0.8726383256   -2.9048246222   -0.9042084238
     H    -0.9399581692   -4.6588933360   -1.9977979760
     H    -2.4039668065   -0.5581924633   -2.0079384850
     H    -3.0816785207   -3.1254974321   -2.7194437241
     O    -0.2745861866    2.0185330796   -0.1955537460
     C    -1.5813374356    2.5718909212   -0.2189015877
     C    -1.6066000698    3.6030976049   -1.0855410978
     C    -0.2848167426    3.7346774102   -1.6520775911
     C     0.4912319724    2.7753386945   -1.1112577712
     H    -2.2891967038    2.1283350660    0.4648853048
     H    -2.4628854357    4.2295247073   -1.2975286216
     H     1.5308185210    2.4947202890   -1.1831990020
     H     0.0370946403    4.4807108843   -2.3663640531
     O    -0.9857173880   -0.1391220735    1.7972137801
     C    -1.0032582686    0.8423051491    2.8213760351
     C    -1.3017151884    0.2466276895    3.9906235077
     C    -1.4834389472   -1.1643009150    3.7366013808
     C    -1.2837353892   -1.3735880955    2.4222570607
     H    -0.7790627358    1.8477671745    2.5027559016
     H    -1.3944936457    0.7449174298    4.9464427537
     H    -1.3405001687   -2.2271893687    1.7636848963
     H    -1.7466010847   -1.9201230789    4.4643785320
