53
-1.4420953981884090e+03 frame 380   xyz file generated by TeraChem
    Co     0.0065289922   -0.0138120033    0.0139138207
     C     1.5534357681    0.8041602323    0.8223161891
     N     2.4911133751    1.3047859257    1.2991193503
     C     3.6022193287    1.8983949405    1.8761610812
     C     3.6048797132    3.2965090936    2.0652880026
     C     4.7190884184    3.8792004591    2.6486683596
     C     5.8146707897    3.0810120628    3.0308542501
     C     5.7959709727    1.6872935808    2.8309415937
     C     4.6893500101    1.0825970136    2.2556585135
     H     2.7480431011    3.8913611134    1.7675517623
     H     4.7460783914    4.9515718570    2.8115921511
     H     6.6487247878    1.0850796156    3.1265343360
     H     4.6549399955    0.0112391506    2.0891189820
     H     6.6842349244    3.5460729972    3.4853072995
     C    -1.5464938033   -0.8280371078   -0.7907855532
     N    -2.4811376755   -1.3279337232   -1.2735063488
     C    -3.5954884222   -1.9130751841   -1.8555044874
     C    -4.7624935781   -2.0730640981   -1.0810255892
     C    -5.8706740644   -2.6561806517   -1.6764192095
     C    -5.8120022778   -3.0786083964   -3.0193386456
     C    -4.6366670021   -2.9133165232   -3.7757919777
     C    -3.5193256687   -2.3257671601   -3.2034704107
     H    -4.7870168122   -1.7377819241   -0.0497012244
     H    -6.7847336942   -2.7865334755   -1.1065184551
     H    -4.6038328658   -3.2457309737   -4.8080689600
     H    -2.6019881414   -2.1899144677   -3.7662833227
     H    -6.6843855511   -3.5364166291   -3.4757119834
     C     0.0280689101    1.3478868699   -1.3492488043
     N     0.0454339166    2.1792406313   -2.1653716473
     C     0.0603057959    3.1592970312   -3.1444256944
     C    -1.1599893251    3.7578666578   -3.5259432628
     C    -1.1341539320    4.7393847658   -4.5039762513
     C     0.0870828865    5.1117382451   -5.0974830465
     C     1.2949794373    4.5005405942   -4.7072615550
     C     1.2933698592    3.5220212515   -3.7255321797
     H    -2.0885786645    3.4569063455   -3.0529443221
     H    -2.0563638294    5.2209340987   -4.8118773664
     H     2.2280358417    4.7952126803   -5.1760761432
     H     2.2108443876    3.0352062650   -3.4127744770
     H     0.0983642992    5.8790719784   -5.8656137858
     C    -0.0149436922   -1.3731813798    1.3765450777
     N    -0.0491081099   -2.1925549280    2.2046458403
     C    -0.0805090155   -3.1662017574    3.1882292003
     C    -0.4814580807   -4.4736198220    2.8396395754
     C    -0.5078150041   -5.4404072642    3.8320178392
     C    -0.1452203151   -5.1072772964    5.1519070592
     C     0.2502093158   -3.7966899090    5.4827597267
     C     0.2896626700   -2.8158824754    4.5048261988
     H    -0.7520800372   -4.7083581198    1.8158550390
     H    -0.8071463749   -6.4552163246    3.5917606169
     H     0.5233266681   -3.5541817444    6.5044057285
     H     0.5869821621   -1.7989520708    4.7370996334
     H    -0.1708176833   -5.8706005473    5.9236795822
