8
-1.6188104239270033e+03 frame 72   xyz file generated by TeraChem
    Fe     0.2007513971    0.7020176259    0.5102319379
     C     2.7054894772   -0.6271514200   -0.5365222585
     O     2.3356534766    0.4849251187   -0.2045951524
     H     2.0114712161   -1.4791218896   -0.5725174640
     H     3.7600026589   -0.7939657480   -0.8267107081
    Cl    -0.5361383311   -0.8930651142   -1.1000583755
    Cl    -0.1704212335    2.9280187991    0.1663308059
    Cl     0.5177808001   -0.3211606475    2.5633295680
