29
-8.0516938683823946e+02 frame 56   xyz file generated by TeraChem
    Mn    -0.1482530261    0.0262639772    0.2970299857
     O     1.8492399479    0.4266919787    0.2481066368
     C     2.7869746895   -0.0065833503    1.1991229055
     C     4.0259019343    0.1057410288    0.6793080630
     C     3.8906075654    0.6234255570   -0.6596710788
     C     2.5745296135    0.8043234214   -0.8922303109
     H     2.3650367093   -0.3291999609    2.1371092402
     H     4.9474402246   -0.1438736137    1.1860702546
     H     1.9877859354    1.1743435584   -1.7173368283
     H     4.6905795096    0.8358723582   -1.3551291579
     O    -0.7386722151   -1.3324662493   -1.2151496179
     C    -0.9526284632   -2.6961110746   -0.9778549090
     C    -0.9041220068   -3.3634813098   -2.1498144393
     C    -0.6459719262   -2.3968669506   -3.1873817007
     C    -0.5498223850   -1.1882206539   -2.5947304108
     H    -1.1279876863   -2.9631247939    0.0522715282
     H    -1.0447626380   -4.4275434007   -2.2774488894
     H    -0.3903137151   -0.1789360422   -2.9393970042
     H    -0.5528962454   -2.5928604502   -4.2464948968
     O    -0.6794154940    1.7111199087   -0.7226366626
     C    -1.9233300665    1.8823728434   -1.3498777085
     C    -2.1492026435    3.1993423228   -1.5316523943
     C    -1.0153718007    3.9114671037   -0.9953835002
     C    -0.1522792970    2.9943693342   -0.5134310813
     H    -2.4633636201    0.9740540862   -1.5665637478
     H    -3.0246206837    3.6324482412   -1.9950196592
     H     0.8050765830    3.0260193550   -0.0185129021
     H    -0.8751538386    4.9831752800   -0.9766819339
     I    -0.8378447171   -0.9296902441    2.5791320576
