13
-1.0272297448709985e+03 frame 80   xyz file generated by TeraChem
    Fe    -0.2087309112    0.2872324365   -0.7479940374
     O     1.7562208029    0.0460980032   -0.5790020191
     N     2.7252630670   -0.9411881902    1.4276792758
     C     2.2773300165   -0.4603581619    0.4473477382
     O    -0.8879051405   -1.2907420684   -1.7631794628
     N    -1.9002085402   -3.1654143688   -0.5805905570
     C    -1.4149592428   -2.2675593853   -1.1740286348
     O    -1.0723854936    1.9525779041   -1.0356185971
     N    -0.8412241405    4.2631208040   -0.2888194213
     C    -0.9322533712    3.1434470100   -0.6339399223
     S    -0.8224577591   -0.6112743838    1.6715332771
     H    -1.2253048785   -1.8117267790    1.1670749782
     H     0.4631666234   -0.9978423011    1.9060501136
