15
-1.2972625829384178e+03 frame 85   xyz file generated by TeraChem
    Cr    -0.1451150832    0.2943556844    0.4230379350
     N     1.7098357748    0.6360641346    0.7184170524
     C     2.9082615869    0.6808704067    0.7894328319
     S     4.4930960725    0.7639424748    0.9005331462
     N    -1.7060953673   -0.4420420853   -0.3777478964
     C    -2.5786425369   -0.8730827554   -1.0855359847
     S    -3.7462237012   -1.4484403865   -1.9965310964
     C    -0.2283827447    2.7543137185   -1.4362421424
     O    -0.4445867252    2.1255621010   -0.4073657992
     H    -0.5575120492    3.7986102637   -1.5078326162
     H     0.2890497589    2.3032354890   -2.2944116294
     C    -0.4178502370   -2.2775306888    2.0039039197
     O    -0.1482272984   -1.0831829466    1.9402848384
     H    -0.3775970548   -2.7841274914    2.9764047103
     H    -0.7018683676   -2.8576955291    1.1152778822
