16
-1.0324386960149643e+03 frame 27   xyz file generated by TeraChem
    Cr     0.1187310126   -0.4070851720   -0.1985487000
     C     4.9134334167    0.2074225768    0.1857432365
     C     4.1663620584    0.8372218074   -0.8202354021
     C     2.7938040449    0.6491621443   -0.8630804512
     N     2.1402339124   -0.1271398407    0.0254914032
     C     2.8510426514   -0.7240144420    1.0042322188
     C     4.2246196335   -0.5865073529    1.1161127716
     S     6.6682438071    0.3622047662    0.3470381285
     H     4.6367500078    1.4723210447   -1.5636331783
     H     2.1726961295    1.1297023334   -1.6106830880
     H     2.2804221481   -1.3145679955    1.7118773284
     H     4.7477882098   -1.0893259330    1.9228456940
     H     6.8529400000    1.1852982293   -0.7049913183
     F    -0.3996821186   -1.5920140204   -1.3905881356
     F    -0.0912258112    1.1426509098   -0.9989865131
     F    -0.0581605084   -0.7237624241    1.5046255801
