14
-1.6738946126018552e+03 frame 32   xyz file generated by TeraChem
    Cr     0.7568724770    0.4665527500   -0.3322466181
     S     2.9381620515    0.6987158784    0.0191002359
     C     3.3999663828   -0.9235478142    0.2675134735
     N     3.7293971486   -2.0354986003    0.4527345233
     S     0.1549842600   -0.9467352238   -1.9558260393
     C    -0.5895472780   -2.1850482049   -1.0570684047
     N    -1.1348221193   -3.0185512319   -0.4337324273
     S     0.3063938501    2.6024507560   -0.8003009719
     C    -1.3434343325    2.6463237959   -0.3930860566
     N    -2.4735281734    2.6347478289   -0.0675416558
     C    -1.6078207240   -0.0917344187    1.4319812953
     O    -0.4277681448   -0.0589273559    1.0345889924
     H    -1.8508376167   -0.7446501284    2.2795856203
     H    -2.3778570578    0.5315945111    0.9556174666
