11
-2.0199011157906932e+03 frame 35   xyz file generated by TeraChem
    Cr    -0.2315855547    0.2654000410   -0.5501174155
     N     1.6214275935    0.0723246860   -0.2780326388
     C     2.7255041203   -0.1444397388    0.1139076735
     S     4.2376327862   -0.4144286481    0.5967872360
     N    -0.5625048252   -1.4152572215   -1.4566190381
     C    -0.7214289754   -2.5129473703   -1.8951743277
     S    -0.9547009253   -3.9782074074   -2.5243946687
     N    -0.5151474808    2.1656753592   -0.8581114294
     C    -0.6866942671    3.3443173383   -0.9294491700
     S    -0.9286471898    4.9314484994   -1.0657201330
    Cl    -1.2325359600   -0.0278169529    1.4004816942
