17
-3.5945115592427862e+02 frame 46   xyz file generated by TeraChem
    Co     0.2963653037   -0.4163107406   -0.2117335921
     C     3.1421964263    0.0482483480   -1.2345478489
     N     2.3671254358   -0.5868091225   -0.1230001702
     H     2.6318451032   -0.1478042489    0.7634987068
     H     2.6469181161   -1.5662954612   -0.0273123521
     H     2.8629178297    1.1010307146   -1.3014596818
     H     2.8955721769   -0.4516475505   -2.1736220605
     H     4.2184535231   -0.0307700395   -1.0600848226
     C    -2.3378559605   -0.8633373869   -1.5892155790
     N    -0.9504892881   -1.4367146457   -1.5250963937
     H    -0.5618172458   -1.4603999402   -2.4710873887
     H    -1.0147983784   -2.4135441284   -1.2292606204
     H    -2.2739313088    0.1900516464   -1.8666306467
     H    -2.7986511151   -0.9462917406   -0.6040095265
     H    -2.9431556973   -1.4010861492   -2.3234109970
     I    -0.0211672022    2.1590766382    0.5191272534
     I    -0.8323916294   -0.9645432734    2.1929710618
