35
-8.7918169646106594e+02 frame 6   xyz file generated by TeraChem
    Fe    -0.1258551730   -0.1230718599    0.0775978460
     C     4.5697347273   -0.5142764528   -0.3933038460
     C     3.8790669268    0.3901985094   -1.2115429157
     C     2.4965669271    0.4960749139   -1.0906379061
     N     1.7989388089   -0.2614887135   -0.2022501114
     C     2.4658734571   -1.1445470228    0.5938247650
     C     3.8491610338   -1.2918602768    0.5220937925
     H     5.6521108454   -0.6104319739   -0.4673131977
     H     4.4019039961    1.0127361128   -1.9349003885
     H     1.9224523475    1.1888492228   -1.7004541540
     H     1.8670631926   -1.7269811442    1.2921796297
     H     4.3440484451   -2.0049019873    1.1784183868
     C    -2.1082857720   -2.5439479978   -3.4333524619
     C    -0.7566130526   -2.7318135111   -3.1211871227
     C    -0.1756808190   -1.9614054121   -2.1166957412
     N    -0.8930178338   -1.0278383080   -1.4329314010
     C    -2.2110579106   -0.8443727920   -1.7288782212
     C    -2.8424670693   -1.5829448520   -2.7248328484
     H    -2.5839870938   -3.1378013795   -4.2125687933
     H    -0.1488314380   -3.4662802974   -3.6459531780
     H     0.8693344481   -2.0798213089   -1.8458075675
     H    -2.7491621394   -0.1041366971   -1.1412289053
     H    -3.8975958292   -1.4095468406   -2.9270091166
     C    -0.7086658191    4.5247099474   -0.4669884516
     C    -1.0084053715    3.6723696308   -1.5374168243
     C    -0.8294678628    2.2997837111   -1.3839178136
     N    -0.3719782601    1.7689205285   -0.2188719496
     C    -0.0709473067    2.5928760139    0.8222477155
     C    -0.2310780754    3.9728656685    0.7288016095
     H    -0.8451604986    5.6009933949   -0.5625297040
     H    -1.3782156038    4.0586919106   -2.4851750360
     H    -1.0427500104    1.6014662941   -2.1885191961
     H     0.2810496698    2.1213709143    1.7379689761
     H     0.0109804213    4.5957474956    1.5876469886
     I    -1.4544384305   -0.9355126066    2.0328042648
