14
-5.6666936595806158e+02 frame 50   xyz file generated by TeraChem
    Fe     0.2023494804   -0.2612662237   -0.5441395684
     C     3.1041308870   -0.0382073008    0.4482940303
     O     2.2678259128   -0.0558799189   -0.4469098788
     H     2.8133072395   -0.0778773255    1.5082603530
     H     4.1715748522    0.0183409657    0.1967493158
     C    -1.4618001501   -1.5921507590   -2.7849087382
     O    -0.4433419074   -1.1147496461   -2.2993442502
     H    -2.4318424095   -1.5269304386   -2.2710280722
     H    -1.4162419101   -2.0979002154   -3.7583910325
     C    -0.6477204175    2.5912980817   -0.2455233882
     O    -0.1372676155    1.7563679836   -0.9841170521
     H    -1.0070503953    2.3211648029    0.7586518540
     H    -0.7551928896    3.6295192455   -0.5868302889
     F    -0.5618166850   -0.4858169833    1.0057789328
