15
-5.8126129198395938e+02 frame 77   xyz file generated by TeraChem
    Co    -0.5745732432   -0.0619825488    0.0281141614
     C     1.3259307152    0.1508505581    0.3028981326
     N     2.4704278898    0.2957109647    0.4867593823
     C    -0.5385563356   -2.2390112883   -2.0138953574
     O    -1.1841840762   -1.4718014061   -1.3054773668
     H    -1.0689438047   -2.9209994652   -2.6907379679
     H     0.5605164036   -2.2619052056   -1.9880982150
     C    -1.0380083702    2.6592273030   -1.0760310032
     O    -1.5099785264    1.5690280775   -0.7667011090
     H    -1.6965203559    3.4310872795   -1.4946912639
     H     0.0306165651    2.8843780130   -0.9457224539
     C    -1.1042572416   -0.5111464084    2.8891818336
     O    -1.5867766024   -0.3977550155    1.7651491891
     H    -0.0203615478   -0.4441953236    3.0627503414
     H    -1.7709593229   -0.6830802527    3.7437754011
