39
-1.0612394415315171e+03 frame 74   xyz file generated by TeraChem
    Fe    -0.3357960511   -0.5928693115    0.0473595970
     O     1.5924939161   -0.2797868226    0.0637284315
     C     2.3625154357    0.2691889839    1.1136143309
     C     3.6302056408    0.4279911590    0.6864260602
     C     3.6959729499   -0.0273220712   -0.6814763969
     C     2.4658864306   -0.4413209047   -1.0372930411
     H     1.8368948863    0.4442519358    2.0369139777
     H     4.4491345626    0.8201894949    1.2744569701
     H     2.0259280240   -0.8603391417   -1.9264730818
     H     4.5735382836   -0.0436901575   -1.3135741495
     O    -0.5369317842   -0.8451868286   -1.9557473106
     C    -0.5954378354   -2.1491269212   -2.4885165986
     C    -0.4278150160   -2.0911493885   -3.8249063713
     C    -0.2489329223   -0.7030906681   -4.1772185229
     C    -0.3153674898    0.0219421153   -3.0418558456
     H    -0.7983455564   -2.9425441748   -1.7832555259
     H    -0.4430716111   -2.9333567081   -4.5033744529
     H    -0.2420010213    1.0690278680   -2.7970851856
     H    -0.0985846338   -0.3061372771   -5.1721582237
     O    -1.0458854567    1.2273738899   -0.1941299795
     C    -2.4062529283    1.4522047783   -0.4954193717
     C    -2.7316749361    2.7062490664   -0.1199443280
     C    -1.5524106000    3.3144001487    0.4507047630
     C    -0.5585581972    2.4046069434    0.4045745961
     H    -2.9151233903    0.6498729635   -1.0079868203
     H    -3.6977897094    3.1745318571   -0.2536392429
     H     0.4845342201    2.3840660543    0.6768155688
     H    -1.4678830641    4.3248551280    0.8276113593
     C    -1.2074961397   -1.4938041803    4.5881704184
     C    -0.2420406519   -2.2137568290    3.8788132360
     C     0.0449860983   -1.8422205849    2.5731641504
     N    -0.5882121825   -0.8086115021    1.9611264722
     C    -1.5216972728   -0.1087388621    2.6519219737
     C    -1.8530851616   -0.4250650140    3.9627221382
     H    -1.4497136329   -1.7606216801    5.6123887534
     H     0.2859538659   -3.0480908113    4.3278798732
     H     0.8030727075   -2.3665114261    1.9959620610
     H    -1.9985465875    0.7134904341    2.1298011952
     H    -2.6060363845    0.1598689928    4.4799174512
