27
-1.6159768009396064e+03 frame 42   xyz file generated by TeraChem
    Fe     0.2422001258   -0.4510382220    0.1272210834
     C     4.9927544139    0.3731553185   -0.2461559477
     C     4.0569576538    1.1973551377   -0.9010126400
     C     2.7096215315    0.9142198166   -0.7898294353
     N     2.2449715082   -0.1401099592   -0.0777135947
     C     3.1373660013   -0.9269029676    0.5728838280
     C     4.4982635648   -0.7097818723    0.5097661099
     S     6.7266139009    0.6192002064   -0.3033619774
     H     4.3694760786    2.0568558700   -1.4841170043
     H     1.9611153735    1.5447421536   -1.2585507520
     H     2.7216907235   -1.7326690406    1.1696162576
     H     5.1694366220   -1.3674756264    1.0519581243
     H     6.7094573370    1.7211654437   -1.0807731727
     C    -1.8576910908   -3.1305406059   -3.3080977193
     C    -1.2325611797   -3.7463981220   -2.2061019942
     C    -0.6197616605   -2.9606055655   -1.2496025465
     N    -0.5864392275   -1.6098324868   -1.3300031111
     C    -1.2025137846   -1.0065683661   -2.3775080241
     C    -1.8336781681   -1.7223280631   -3.3738407804
     S    -2.6697379577   -4.0052516888   -4.5909081905
     H    -1.2285689529   -4.8244125521   -2.0864486988
     H    -0.1485563684   -3.4063758975   -0.3791165732
     H    -1.1886857224    0.0782623526   -2.3772706123
     H    -2.3134292169   -1.1915987430   -4.1894732572
     H    -2.4551456575   -5.2449618927   -4.1049162779
     F    -0.4826541062    1.1055954934   -0.1844877468
     F     0.0325598083   -1.2532048055    1.6544315021
