15
-1.3345964473932099e+03 frame 55   xyz file generated by TeraChem
    Fe    -0.2045251056    0.1752977057    0.0937042588
     N     1.6382583625    0.5121356644    0.3554864514
     C     2.8045365030    0.5459338493    0.6114520360
     S     4.3780684627    0.6231349169    0.9335049603
     N    -1.7031820138   -0.6928777477   -0.6435076555
     C    -2.6316139746   -1.2236970539   -1.1743075016
     S    -3.8820220484   -1.9566813422   -1.8705015807
     C     0.2738093505    2.7407370125   -1.2405352202
     O    -0.5792016972    1.9818089098   -0.7995609787
     H    -0.0361853048    3.6975358072   -1.6836836269
     H     1.3413713245    2.4875252152   -1.1986606600
     C    -0.8242278232   -1.7983586862    2.1408892306
     O    -0.4636448631   -0.6477298710    1.9329739639
     H    -0.9152495939   -2.1549836426    3.1761082566
     H    -1.0681580495   -2.4865635266    1.3203248478
