9
-5.4073798181441850e+02 frame 24   xyz file generated by TeraChem
    Ni     0.1195295057   -0.1161989741   -0.1463322629
     C     2.1612784994    0.2013364816    0.0162089740
     N     3.3257288809    0.3369638806    0.0613077115
     C    -1.0475093303   -1.3244503319   -1.3563971762
     N    -1.6507693053   -2.0323358500   -2.0714805654
     C    -0.6554850551    1.7341176496   -0.4374176780
     N    -1.0976266219    2.8032693164   -0.6277116422
     C    -0.4255335131   -0.6406846080    1.7380035441
     N    -0.7297406194   -0.9620658026    2.8237876334
