35
-9.6770611064565037e+02 frame 42   xyz file generated by TeraChem
    Fe     0.0568982526    0.2243046861   -0.2990740866
     C     4.7446444804   -0.3931860342    0.4883576337
     C     4.3300831025    0.3497144258   -0.6226206554
     C     2.9735662910    0.5232300090   -0.8425045293
     N     2.0390425149   -0.0099170403   -0.0132761221
     C     2.4406767736   -0.7228039972    1.0729543430
     C     3.7838533406   -0.9343193493    1.3467158942
     H     5.8023328635   -0.5419061578    0.6843556633
     H     5.0470302840    0.7921197794   -1.3059043062
     H     2.6110829349    1.1035902786   -1.6859089992
     H     1.6595394708   -1.1046226349    1.7219203009
     H     4.0664646437   -1.5079914327    2.2228720556
     C    -1.9458836280   -3.2464759077   -2.9335655702
     C    -0.7892923138   -2.6181969444   -3.4093350739
     C    -0.2098206497   -1.6165382144   -2.6475880866
     N    -0.7355494233   -1.2277091904   -1.4576576129
     C    -1.8532462846   -1.8447072062   -0.9884764398
     C    -2.4811664343   -2.8528161532   -1.7047032270
     H    -2.4183427836   -4.0353330581   -3.5112796956
     H    -0.3408296857   -2.9027322405   -4.3551560687
     H     0.6938340658   -1.1127992649   -2.9778841259
     H    -2.2205666360   -1.5174927997   -0.0218191928
     H    -3.3715247252   -3.3206819159   -1.2984862878
     C    -1.3534894973    4.6615239333   -1.4154569766
     C    -0.8557571886    3.8377359185   -2.4316065064
     C    -0.4460924310    2.5539955528   -2.1112693116
     N    -0.5112774968    2.0772222759   -0.8414523488
     C    -1.0046071117    2.8727189952    0.1460870308
     C    -1.4284813204    4.1682191743   -0.1103978454
     H    -1.6825213962    5.6715834322   -1.6408965769
     H    -0.7900858541    4.1833099713   -3.4577032437
     H    -0.0628811988    1.8797475436   -2.8714111353
     H    -1.0626364317    2.4398237247    1.1392338496
     H    -1.8156560163    4.7735697775    0.7022032768
     F    -0.6802627191   -0.0173850789    1.2479213338
