15
-1.3346075811400369e+03 frame 88   xyz file generated by TeraChem
    Fe     0.5221674198    0.6207295779   -0.2127331801
     S     2.8182918974    0.8546367431    0.1724470171
     C     2.8464345465   -0.7503292021    0.7245767391
     N     2.8024298555   -1.8517237842    1.1212747152
     S    -0.5059878673   -0.4733197532   -2.0885835716
     C    -1.3095432191   -1.5805520142   -1.0962129930
     N    -1.8257421775   -2.3237344684   -0.3508392156
     C    -1.1960381911    2.9530048034   -1.1130307280
     O    -0.3718655913    2.5282325358   -0.3150356706
     H    -1.5303897805    3.9981625625   -1.0461776678
     H    -1.6141194828    2.3090071423   -1.9012170748
     C    -0.4290629559   -1.3510894654    1.7893509263
     O    -0.3668024956   -0.1605007362    1.4765142206
     H    -1.2195496089   -1.6879393546    2.4714034670
     H     0.3224157351   -2.0750733007    1.4529009062
