13
-8.7786481568618501e+02 frame 35   xyz file generated by TeraChem
    Fe     0.0425584969   -0.0867691514   -0.1691345654
     C    -1.4065167222   -2.3179706850   -1.0911429623
     O    -0.6072867598   -1.4044408286   -1.5547791845
     C    -1.7198370616   -2.1800762032    0.4620271038
     O    -2.4569240200   -2.9930361396    1.0181323698
     O    -1.1431727928   -1.1626977934    1.0353878347
     O    -1.9171998988   -3.2325483423   -1.7381022401
     C     2.4822776266    1.3232614800    0.0979783024
     O     2.0229918602    0.1132991210    0.1863981606
     C     1.3901939294    2.3842042956   -0.3390451478
     O     1.6945836769    3.5627387272   -0.5175589187
     O     0.1972268786    1.8788247286   -0.4722058196
     O     3.6403316231    1.6813816024    0.3170024918
