11
-2.7523686635499485e+02 frame 44   xyz file generated by TeraChem
    Co     0.0687659662   -0.0849422630   -0.3126687479
     C     2.9674930741    0.5587029839   -0.9270350161
     N     2.1229972724   -0.3279957607   -0.0843485072
     H     2.3478706485   -0.2046980137    0.9044574656
     H     2.3185833899   -1.3072150597   -0.2996652552
     H     2.7304609141    1.5964451901   -0.6840140626
     H     2.7163097052    0.3773474390   -1.9735610176
     H     4.0349697010    0.3782871320   -0.7648973835
     I    -0.4243824931   -0.9515686702   -2.6954028551
     I    -0.7023230343    2.3380735148    0.6798795472
     I    -1.1113461260   -0.9185290318    2.0121853260
