41
-9.6325268190700308e+02 frame 123   xyz file generated by TeraChem
    Fe    -0.1438537147    0.0158911877   -0.0780571582
     C     2.8675926145   -0.4514147702    0.6093528531
     N     1.9368413936    0.2832349636   -0.3262100092
     H     2.1862102376    0.0381941032   -1.2920076580
     H     2.1323751649    1.2895539466   -0.2602891407
     H     2.7578616415   -1.5266343383    0.4604745087
     H     2.6218311182   -0.1921728173    1.6393566525
     H     3.9020181780   -0.1667165329    0.3966540403
     C    -1.4690776307   -3.8266434742   -2.6057174035
     C    -0.3134700039   -3.8660194156   -1.8127924565
     C     0.0417651131   -2.7402889822   -1.0893041196
     N    -0.6997063953   -1.5942207686   -1.1290253243
     C    -1.8260311039   -1.5575579341   -1.9003284687
     C    -2.2344861252   -2.6536254034   -2.6431978853
     H    -1.7684237311   -4.6972171650   -3.1834022771
     H     0.3030025342   -4.7577706817   -1.7554158374
     H     0.9240086139   -2.7390513512   -0.4562773881
     H    -2.3931668872   -0.6325373108   -1.9049079762
     H    -3.1376487539   -2.5877768945   -3.2419089803
     C    -2.2023733923    3.9530090360   -1.8463422387
     C    -1.2708613019    3.2289607963   -2.6040972558
     C    -0.7024270218    2.0910859755   -2.0575165322
     N    -1.0218418147    1.6581273700   -0.8011724163
     C    -1.9317934870    2.3621018008   -0.0652778100
     C    -2.5361716615    3.5063736504   -0.5607545247
     H    -2.6616667337    4.8501452888   -2.2531131627
     H    -0.9898687795    3.5419876527   -3.6048669750
     H     0.0143482373    1.4997651420   -2.6211387638
     H    -2.1679863526    1.9866243422    0.9249815554
     H    -3.2571310983    4.0390731354    0.0515834667
     C    -1.0067868615   -0.5113668176    4.5966178547
     C    -1.4651965577   -1.4733391711    3.6872541359
     C    -1.2067893539   -1.3023149690    2.3362790011
     N    -0.5196420366   -0.2190249719    1.8704203061
     C    -0.0782436305    0.7218871458    2.7582601284
     C    -0.3026256075    0.6036338519    4.1192550949
     H    -1.1958236117   -0.6265264322    5.6606861850
     H    -2.0161148782   -2.3473305311    4.0204499093
     H    -1.5424309224   -2.0272410840    1.6023849556
     H     0.4538727953    1.5781058592    2.3517431836
     H     0.0649157280    1.3710826528    4.7934218262
