37
-1.3217684581589988e+03 frame 35   xyz file generated by TeraChem
    Cr     0.0372944780    0.0033137515   -0.1419638773
     N     1.8045826920    0.2805099090   -0.4461760479
     C     2.8827532920    0.6687338868   -0.8787743150
     S     4.2757209273    1.1406332827   -1.4015561411
     C    -2.0656992780   -3.4882435088   -2.6427230763
     C    -0.7098964888   -3.5307341825   -2.3099977931
     C    -0.1613546852   -2.4776348623   -1.5908347269
     N    -0.9055319276   -1.4093604056   -1.2055945906
     C    -2.2224519151   -1.3687261346   -1.5290090068
     C    -2.8321300263   -2.3885104175   -2.2440352304
     H    -2.5190451718   -4.2984593731   -3.2057791361
     H    -0.0802747394   -4.3637976850   -2.6032901039
     H     0.8904803065   -2.4656389081   -1.3201735176
     H    -2.7784241599   -0.4944319492   -1.2051498850
     H    -3.8873548591   -2.3190055954   -2.4855285610
     C    -1.8394798330    4.2517566756   -1.2194102830
     C    -1.6137823764    3.2989034474   -2.2168768631
     C    -1.1260411534    2.0519107105   -1.8556362472
     N    -0.8681711820    1.7276852645   -0.5622591641
     C    -1.0807088966    2.6562097466    0.4045864055
     C    -1.5669022200    3.9221698672    0.1106239844
     H    -2.2171085230    5.2370243324   -1.4755428952
     H    -1.8057589268    3.5176392129   -3.2617936158
     H    -0.9229240289    1.2875816938   -2.5994145466
     H    -0.8507826766    2.3616929245    1.4226820336
     H    -1.7229942738    4.6352026654    0.9129355988
     C    -0.9229085318   -1.0381091194    4.4411721551
     C    -1.9906078610   -0.7801333002    3.5756898305
     C    -1.7203454066   -0.4548797117    2.2554145571
     N    -0.4533527845   -0.3807634587    1.7763202329
     C     0.5841048551   -0.6332703608    2.6170733201
     C     0.3821417564   -0.9609375716    3.9514066292
     H    -1.1071996094   -1.2951468865    5.4798585868
     H    -3.0190834805   -0.8300984954    3.9168056949
     H    -2.5180909130   -0.2442503231    1.5508603365
     H     1.5832065021   -0.5633537494    2.1987122073
     H     1.2382999882   -1.1516999043    4.5895341070
