17
-1.7141117483231069e+03 frame 38   xyz file generated by TeraChem
    Co    -0.3085414588    0.2955083073   -0.4607020330
     N     1.5042597353    0.0738942121   -0.1942429008
     C     2.2408737741   -0.8778141957   -0.2897718115
     S     3.3241779966   -2.0428938746   -0.3629535454
     N    -0.6293593240   -1.3137159273   -1.3091789891
     C    -0.4397252705   -2.4831731580   -1.5006985824
     S    -0.2386161272   -4.0406200839   -1.7946812202
     N    -0.5821258445    2.1102782208   -0.1612491722
     C    -0.4852890922    3.1548521330    0.4215038880
     S    -0.4061064706    4.5717592208    1.1586171987
     C    -0.2203308560   -1.1709102895    2.0609860588
     N    -1.0059119749   -0.2053148478    1.2467176904
     H    -1.1373391116    0.6734398037    1.7516807113
     H    -1.9364080584   -0.5838106840    1.0532585249
     H     0.7376884068   -0.7171466347    2.3098878164
     H    -0.0532565255   -2.0715875278    1.4707911806
     H    -0.7701777152   -1.4172452160    2.9746605577
