29
-1.0013609935894017e+03 frame 125   xyz file generated by TeraChem
    Ni    -0.1784070242   -0.4439105240    0.1436666113
     O     1.5420862779   -1.5137396787    0.1505511304
     N     3.5947552140   -1.7969153786    1.4114105895
     C     2.5560205337   -1.6415837571    0.7850564145
     O    -0.7110497854   -1.8811806052   -1.2103092183
     N    -2.0290833989   -2.2707308824   -3.2086322366
     C    -1.3678163080   -2.0594387906   -2.2012751709
     C    -4.1288553381    1.9077341202   -0.6780265601
     C    -3.0289460242    2.0385904653   -1.5303121413
     C    -1.8636598741    1.3416677851   -1.2386287145
     N    -1.7760512597    0.5413845915   -0.1489898886
     C    -2.8321805387    0.4164694868    0.6870401474
     C    -4.0263436949    1.0835879149    0.4451558205
     H    -5.0513256496    2.4415823856   -0.8859613277
     H    -3.0662799624    2.6687780910   -2.4126940599
     H    -0.9885271888    1.4154168459   -1.8784899166
     H    -2.7079315360   -0.2262177106    1.5521784681
     H    -4.8564399980    0.9552988145    1.1318168505
     C     1.2400369191    2.1768744332    3.7419393791
     C     1.2819762942    2.6933591775    2.4445450507
     C     0.8321038585    1.9096383240    1.3892386696
     N     0.3687473462    0.6558758674    1.5953695215
     C     0.3200207632    0.1470593480    2.8500838071
     C     0.7492107338    0.8845034585    3.9456967308
     H     1.5832246625    2.7727825744    4.5823441868
     H     1.6564533529    3.6916815870    2.2441266185
     H     0.8430624935    2.2773461074    0.3684710523
     H    -0.0663657385   -0.8617730619    2.9655027336
     H     0.6988780354    0.4452966183    4.9365038598
