71
-3.0970212349249900e+03 frame 112   xyz file generated by TeraChem
    Mn     0.6636532113   -0.1605796695    0.2031859179
     C     3.1667730743   -3.1351963160    0.9733739862
     C     3.6575966961   -2.3902444798   -0.1116004513
     P     3.0638503089   -0.6569534105   -0.3267974818
     C     4.1802694636    0.3468931745    0.7424147402
     C     3.7579803738    1.6235830224    1.1482118208
     C     4.5845044627    2.4132814979    1.9490118672
     C     5.8305905880    1.9371487174    2.3582980707
     C     6.2535546443    0.6666803150    1.9617187494
     C     5.4347732439   -0.1265620196    1.1581000114
     C     3.5400144846   -0.2330306315   -2.0574061094
     C     4.4640365620    0.7758772570   -2.3617833884
     C     4.7626079401    1.0805397755   -3.6918044144
     C     4.1481570320    0.3800529898   -4.7299385791
     C     3.2261145998   -0.6273380156   -4.4353205076
     C     2.9186552665   -0.9282609089   -3.1092827486
     C     4.6083624734   -2.9701216610   -0.9665124299
     C     5.0565843054   -4.2727949063   -0.7416360859
     C     4.5670381861   -5.0066769847    0.3400160923
     C     3.6252154307   -4.4340658235    1.1967310076
     H     2.4248038462   -2.7016198628    1.6379257899
     H     2.7863339738    2.0005753184    0.8408741663
     H     4.2450690582    3.3976176554    2.2590436538
     H     6.4687754159    2.5508254809    2.9885184840
     H     7.2210464552    0.2890053985    2.2816074049
     H     5.7706861937   -1.1142872511    0.8591597813
     H     4.9511095656    1.3251463277   -1.5629482330
     H     5.4799334602    1.8661325637   -3.9133458452
     H     4.3840888439    0.6178887476   -5.7636701843
     H     2.7402371795   -1.1760193381   -5.2374481778
     H     2.1991113962   -1.7140990738   -2.8925685787
     H     4.9995656891   -2.4089645583   -1.8091596071
     H     5.7905215450   -4.7113411045   -1.4126509439
     H     4.9182648309   -6.0204686180    0.5137631889
     H     3.2402775995   -4.9985245524    2.0418468457
     C    -0.2946052271    0.6632818299   -3.4738983929
     C    -1.2267879312   -0.2800592626   -3.0194214416
     P    -0.9429959162   -1.1244476003   -1.4094633217
     C    -2.6008581915   -1.1270452648   -0.6093166893
     C    -2.9980509208    0.0387360059    0.0666139345
     C    -4.2495793000    0.0994289525    0.6781392204
     C    -5.1110945333   -0.9984630938    0.6285564758
     C    -4.7189145482   -2.1603530688   -0.0377318144
     C    -3.4684879913   -2.2271979877   -0.6550082002
     C    -0.5878187540   -2.8856524585   -1.8079075231
     C    -0.2986100682   -3.7481193708   -0.7344896733
     C     0.0194184628   -5.0838932963   -0.9740857459
     C     0.0697109886   -5.5724614618   -2.2820972395
     C    -0.2048705648   -4.7198480851   -3.3514633812
     C    -0.5347922186   -3.3823719358   -3.1183287048
     C    -2.3719419442   -0.5406817640   -3.7918291677
     C    -2.5655143819    0.1147245158   -5.0065515889
     C    -1.6242398207    1.0433392073   -5.4593291209
     C    -0.4931931199    1.3183075877   -4.6913024530
     H     0.5691283848    0.9082399084   -2.8657798387
     H    -2.3294458847    0.8947955417    0.1180244967
     H    -4.5457174337    1.0037726457    1.2023351237
     H    -6.0828836278   -0.9506756126    1.1126194924
     H    -5.3840640793   -3.0190835348   -0.0753963410
     H    -3.1689810341   -3.1380595430   -1.1643276397
     H    -0.3193208535   -3.3711233872    0.2855779220
     H     0.2382747026   -5.7405514754   -0.1367881429
     H     0.3253914942   -6.6124587895   -2.4662943100
     H    -0.1658459266   -5.0930810504   -4.3714735687
     H    -0.7526653889   -2.7291734768   -3.9571751996
     H    -3.1186124877   -1.2452114112   -3.4367730703
     H    -3.4551910696   -0.0925624965   -5.5951236736
     H    -1.7805044808    1.5589728742   -6.4031797375
     H     0.2338288777    2.0514855305   -5.0287151736
    Cl     0.3258881225    2.0836720783   -0.1745322138
    Cl     0.3270539035   -1.2286815315    2.2025578847
