47
-1.2805957480993736e+03 frame 41   xyz file generated by TeraChem
    Mn    -0.0071736599   -0.0437633871    0.0615555035
     C     4.5913752253    0.6274225421   -0.8594052995
     C     3.6725351838    0.5563087005   -1.9284778763
     C     2.3357938502    0.3361509385   -1.6556634809
     N     1.8700320525    0.1880320385   -0.3803628737
     C     2.7564548413    0.2602133403    0.6550400964
     C     4.1087105615    0.4731727131    0.4551566328
     C     5.9767390485    0.8503832036   -1.1055471787
     H     4.0038911976    0.6707416048   -2.9556442587
     H     1.6055904286    0.2743384754   -2.4549263096
     H     2.3610788465    0.1356910410    1.6576846822
     H     4.7818646193    0.5175396943    1.3051408839
     N     7.1086953188    1.0327832279   -1.3074175598
     C    -1.7990840370   -2.7913820514   -3.3454287242
     C    -0.4945735171   -3.0170225064   -2.8551712026
     C     0.0129899155   -2.1780904045   -1.8814652789
     N    -0.7097123376   -1.1377556938   -1.3710109295
     C    -1.9722610761   -0.9196991778   -1.8400802877
     C    -2.5406341166   -1.7153237750   -2.8185522974
     C    -2.3518742873   -3.6338239605   -4.3523042502
     H     0.1091770046   -3.8346889814   -3.2357582613
     H     1.0148112302   -2.3242367805   -1.4899342904
     H    -2.5189860145   -0.0818663411   -1.4219461679
     H    -3.5448728494   -1.5045039761   -3.1716791589
     N    -2.8025320607   -4.3234834647   -5.1749660109
     C    -2.2172034556    4.1171237669    0.1853004704
     C    -0.9782780492    3.9761820954   -0.4481265247
     C    -0.3550313338    2.7370058852   -0.4426408445
     N    -0.9149114521    1.6547965884    0.1711000022
     C    -2.1229335242    1.7926009228    0.7920963503
     C    -2.7942782371    3.0044689866    0.8120539940
     H    -2.7256677696    5.0773913944    0.1926395738
     H    -0.4956527631    4.8143019989   -0.9407839421
     H     0.6083385152    2.5896558310   -0.9183377810
     H    -2.5364394806    0.9105467899    1.2698786729
     H    -3.7539427485    3.0744711195    1.3146562340
     C    -0.5754943758   -2.0365744864    4.3046755568
     C    -0.5951006978   -2.8000234826    3.1329080791
     C    -0.4422776478   -2.1623587156    1.9107863302
     N    -0.2814140990   -0.8109483747    1.8193795316
     C    -0.2601889719   -0.0664236569    2.9635945914
     C    -0.4018580933   -0.6490990146    4.2126989858
     H    -0.6930412283   -2.5127955022    5.2742777742
     H    -0.7293899609   -3.8766960670    3.1605570491
     H    -0.4567487243   -2.7228954225    0.9820910694
     H    -0.1242191727    1.0035575918    2.8501742318
     H    -0.3787649166   -0.0230508396    5.0992190021
