9
-4.7602249984335015e+02 frame 59   xyz file generated by TeraChem
    Fe     0.4022670847   -0.3761884478   -0.4109711517
     O     2.0325270054    0.3696736723    0.4907456379
     H     1.8810862095    1.2199923701    0.9349475228
     H     1.9247151968   -0.3606310557    1.1552391284
     O    -0.7887856619   -1.3891258316   -1.6704697786
     H    -0.9014378321   -0.5107787034   -2.1307896686
     H    -1.6360961363   -1.6344988001   -1.2645432904
     F    -0.0751291732    0.9067091823   -1.6115950597
     F     0.6329239771   -1.5715205961    0.9134290750
