17
-6.0188294686715949e+02 frame 49   xyz file generated by TeraChem
    Co     0.2195766628    0.4484243211   -0.1746875978
     C     3.0764833229   -0.3026253047   -0.3569934559
     O     2.0373732355    0.1492045751    0.1556169384
     H     3.0540290659   -0.9834112461   -1.2215188743
     H     4.0387281555    0.0006405997    0.0876042463
     C    -0.9944527840   -1.7691244045   -1.5294341841
     O    -0.1983501396   -0.8208024448   -1.4567826793
     H    -1.6389317041   -2.0719778667   -0.6899701910
     H    -1.0294614499   -2.3119589231   -2.4909993700
     C    -2.1263145996    2.3639525710   -0.5391454707
     O    -1.0718799529    1.7248785777   -0.6787184966
     H    -2.8964998461    2.0654347963    0.1885466135
     H    -2.2750233635    3.2523943324   -1.1758566863
     C    -0.0247978629   -0.4259176614    2.5009845679
     O    -0.4267958327   -0.4594937400    1.3235986241
     H     0.8486891648    0.1622295453    2.8213880826
     H    -0.5925223397   -1.0217092611    3.2358771448
