38
-2.4855042840474553e+03 frame 37   xyz file generated by TeraChem
    Cr    -0.0522502159    0.1271344693   -0.0395969730
     C     4.7181125402    0.3039993470    0.1687852976
     C     4.0386035699    0.7497325474   -0.9893492278
     C     2.6638499683    0.6818296353   -1.0431968334
     N     1.9117314549    0.1933005662   -0.0178810582
     C     2.5584642171   -0.2371155545    1.1069387239
     C     3.9289610352   -0.1984684802    1.2292572104
     S     6.4455834020    0.3379310352    0.3736121604
     H     4.5775174887    1.1527256300   -1.8402416074
     H     2.1252040934    1.0332034076   -1.9173268968
     H     1.9363283619   -0.6145867452    1.9115839451
     H     4.3854902114   -0.5537965283    2.1473724350
     H     6.7464050646    0.8692511594   -0.8296303877
     C    -1.5584038113   -3.4095826782   -2.8776904491
     C    -0.1833344158   -3.2694207659   -2.5857768191
     C     0.2528533794   -2.1959157599   -1.8389116884
     N    -0.5898533623   -1.2334042717   -1.3703300295
     C    -1.9202837504   -1.3629514451   -1.6497929529
     C    -2.4293761361   -2.4105791163   -2.3819981419
     S    -2.2479510682   -4.7196927894   -3.7924140132
     H     0.5442008917   -3.9960960901   -2.9313560891
     H     1.3034701686   -2.0825591985   -1.5957995185
     H    -2.5782207025   -0.5966490030   -1.2504964558
     H    -3.4982232371   -2.4603268471   -2.5626954594
     H    -1.0978437243   -5.3865076275   -4.0225789261
     C    -1.4383845150    4.4115191747   -1.6361587039
     C    -1.3841083031    3.3010591442   -2.5094628323
     C    -0.9738908519    2.0747549144   -2.0321433359
     N    -0.6069620756    1.8770854807   -0.7353433151
     C    -0.6531222562    2.9445085996    0.1142042778
     C    -1.0540185079    4.1966462856   -0.2919963619
     S    -1.9458191426    6.0100717413   -2.1008172971
     H    -1.6652508941    3.3893625209   -3.5535697674
     H    -0.9357455071    1.2109579783   -2.6882494963
     H    -0.3695740743    2.7565558790    1.1441569273
     H    -1.0775992913    5.0037436871    0.4329783728
     H    -2.2088276153    5.7325632396   -3.3947689405
    Cl    -1.0176349022   -0.1884894668    1.8702102079
