13
-1.1188002514963737e+03 frame 30   xyz file generated by TeraChem
    Fe     0.2546489078    0.0548000706    0.1201090315
     S     2.2981269800    0.3734259217   -1.1155323343
     C     3.3578579971   -0.7904655727   -0.4955992642
     N     4.1382210628   -1.5691619004   -0.0901776723
     O    -0.6482428436   -1.5209830428   -0.4715537727
     N    -0.8093473021   -2.5170812647   -2.6883489334
     C    -0.7001480719   -1.9972712465   -1.6345859519
     O    -0.4657521205    1.6392338503   -0.6746676500
     N    -2.7517503593    2.4795554457   -0.7159780323
     C    -1.6618714954    2.0308542430   -0.6651999788
     O    -0.7815964754   -0.0285914694    1.7866690116
     N    -0.3012483400    1.2144783329    3.8265390855
     C    -0.5159325208    0.6329894906    2.8197317002
