19
-5.8214729248521701e+02 frame 63   xyz file generated by TeraChem
    Fe     0.1997373289   -0.5345939523    0.2010241356
     O     2.1762541181   -0.2616197440   -0.0081564591
     C     2.8953725458    0.5591916014    0.8924759298
     C     3.6736334652    1.4090577882    0.1878016505
     C     3.4555674101    1.1498504238   -1.2173111508
     C     2.5563305294    0.1505567661   -1.3152762024
     H     2.7747426892    0.3157775434    1.9384350544
     H     4.3685560479    2.1247454034    0.6088186043
     H     2.1293572659   -0.4159692024   -2.1296756455
     H     3.9489334172    1.6410876998   -2.0461953615
     O     0.4313395205   -2.3001584809   -0.6621865366
     H     1.3080481547   -2.7164786733   -0.7747523462
     H    -0.2364028878   -2.8916543593   -1.0596301680
     O    -0.1134923410    1.3847183233    0.5266635787
     H     0.6549693725    1.9894610089    0.5601693414
     H    -0.9124333533    1.9132930956    0.3345291065
     O    -1.4905337834   -1.0591417156    1.0732306542
     H    -1.7952424552   -1.9742678992    1.2277834883
     H    -2.0062482659   -0.4805618669    1.6677055402
