9
-5.7522081908134135e+02 frame 27   xyz file generated by TeraChem
    Fe     0.0107231390    0.0069991990   -0.0249073091
     C     2.2121286516    0.2275435490    0.0157141849
     O     3.3271221378    0.3378884326    0.0350674437
     C    -0.5882117663   -1.4386366740   -1.5894775630
     O    -0.8873757960   -2.1695731563   -2.3843709765
     C    -0.9478742417    1.9729116381   -0.3732997323
     O    -1.4264066496    2.9705836403   -0.5508904379
     C    -0.6762873505   -0.7579731122    1.9407672602
     O    -1.0239542536   -1.1498049541    2.9313619860
