13
-1.4894761177086255e+03 frame 76   xyz file generated by TeraChem
    Fe    -0.0337504316   -0.3248826706    0.1496985914
     O     1.7691087189   -0.6694150820   -0.1420514384
     N     3.2108676543    1.2821833426   -0.4764903425
     C     2.5580805761    0.3217084010   -0.3152311583
     S    -1.5777483231   -1.7121894866   -1.3397062850
     H    -1.0410999090   -2.9289683328   -1.0956056610
     H    -0.8718728912   -1.5317600260   -2.4782088309
     S    -0.3248626408    2.1625886028   -0.4697628524
     H    -0.3517816144    2.1363571700   -1.8192888313
     H     1.0108540480    2.4097000831   -0.4092044369
     S    -0.5597147849   -0.0063322556    2.6251986356
     H    -0.5645238947   -1.2724342802    3.0965335555
     H    -1.9025910663    0.1311598780    2.6736737702
