37
-1.0646195849383587e+03 frame 81   xyz file generated by TeraChem
    Co     0.0006205521    0.0294659926    0.1089818849
     O     1.9897225313    0.4789946374   -0.0182877595
     C     2.9906093460   -0.2669857040    0.6436611301
     C     4.1580736430   -0.1198943383   -0.0104834846
     C     3.9195641583    0.7415095559   -1.1457125693
     C     2.6189502056    1.0868766696   -1.1335447913
     H     2.6811044615   -0.7682196092    1.5484407786
     H     5.1046248555   -0.5568518769    0.2781983705
     H     1.9843467430    1.7082100806   -1.7458427333
     H     4.6518499759    1.0626840191   -1.8743809714
     O    -0.2632044756   -1.5475814409   -1.1485729665
     C    -0.1072980999   -2.9338680791   -0.9067061448
     C    -0.1120493500   -3.5873741077   -2.0830762119
     C    -0.2763708074   -2.6073729232   -3.1322809473
     C    -0.3590014566   -1.3961321799   -2.5516156351
     H    -0.0048987349   -3.2147847415    0.1293950449
     H    -0.0088510889   -4.6564591331   -2.2121809273
     H    -0.5079568049   -0.3882748359   -2.9088894169
     H    -0.3325870639   -2.8054841515   -4.1942509290
     O    -0.6842488840    1.8979677289   -0.2182589817
     C    -2.0329299740    2.2067459372   -0.5203002698
     C    -2.1936900266    3.5419258830   -0.4920916811
     C    -0.9175751110    4.1324995273   -0.1549506915
     C    -0.0302047791    3.1337767457    0.0058125997
     H    -2.6766022511    1.3633785747   -0.7195147080
     H    -3.1154538389    4.0721265434   -0.6906566847
     H     1.0152504335    3.0638491230    0.2587945360
     H    -0.7063048577    5.1881364019   -0.0483742205
     O    -1.0385541844   -0.6520548627    1.6901636455
     C    -0.9605823734   -0.0913864876    2.9888873742
     C    -1.8761346567   -0.6819703478    3.7771248169
     C    -2.5843896200   -1.6553437202    2.9758802334
     C    -2.0692925267   -1.6211968809    1.7331377682
     H    -0.2147503066    0.6771436603    3.1253423935
     H    -2.0451905404   -0.4640386906    4.8231258843
     H    -2.2637452886   -2.1373463281    0.8066309627
     H    -3.3882932770   -2.2983451872    3.3086103610
