13
-1.0993322158808508e+03 frame 77   xyz file generated by TeraChem
    Mn    -0.1664362780   -0.0540418999   -0.1625779834
     N     1.7909751854    0.2616782505    0.1164977434
     C     2.9624240278    0.3917258889    0.2186995911
     S     4.5888818345    0.5662759487    0.3588941275
     O    -0.6046753258   -1.3465742715   -1.6509160244
     N    -1.2195555335   -3.6060207239   -2.3074305685
     C    -0.9206205424   -2.5156342890   -1.9627956758
     O    -1.1058749396    1.6871892129   -0.4794012268
     N    -0.7580066873    3.9840618279   -1.2034889775
     C    -0.8954466489    2.8651078611   -0.8507815461
     O    -0.9840330318   -0.9454722819    1.4348406158
     N    -1.2407351051   -0.5632519281    3.8248638760
     C    -1.0980947054   -0.7225750084    2.6629786395
