9
-1.0913899839744799e+03 frame 20   xyz file generated by TeraChem
    Cr     0.0332808230   -0.1627855785   -0.2002306068
     N     1.8476127690    0.0985303977    0.0703202283
     C     3.0065083196    0.2554658581    0.3249283876
     S     4.5694056204    0.4650514231    0.6497033766
     N    -0.4169047024   -1.4212546517   -1.4836811447
     C    -0.7429321626   -2.1821563811   -2.3481114086
     S    -1.1703642034   -3.2161784394   -3.5057484769
     I    -0.9763216718    2.1103987670   -1.0219808750
     I    -0.9167506462   -0.9901675321    2.0965037991
