25
-9.0158196589052011e+02 frame 33   xyz file generated by TeraChem
    Fe    -0.0595617881    0.0343046200    0.0148983173
     N     1.8246085875    0.2831812960    0.2539746412
     C     3.0126260560    0.4149728176    0.3780942152
     S     4.5885586773    0.5945042513    0.5472833129
     C    -1.7984695816   -1.6131040290   -1.9597360521
     N    -0.3830484869   -1.3821536272   -1.4989370729
     H     0.1846589667   -1.1264485518   -2.3145009793
     H     0.0103492454   -2.2819875402   -1.2022221073
     H    -2.2059305940   -0.6807645059   -2.3549146887
     H    -2.4046160727   -1.9502058055   -1.1166367803
     H    -1.8259990105   -2.3733112287   -2.7440058183
     C    -2.2449899351    2.2590119228   -0.2873375899
     N    -0.7642310243    2.0057617491   -0.3290177884
     H    -0.3040540213    2.6397143558    0.3320030821
     H    -0.4101542415    2.3093561102   -1.2423080810
     H    -2.6199550413    2.0464291260    0.7156275878
     H    -2.7444050730    1.6094610541   -1.0088281540
     H    -2.4690578354    3.3002027251   -0.5325260289
     C    -2.1096394122   -0.9714447663    2.1826795274
     N    -0.6876384273   -0.5347499907    1.9661612927
     H    -0.0692656530   -1.2928977870    2.2725208912
     H    -0.4773151774    0.2255496796    2.6206922885
     H    -2.3261651757   -1.8210279870    1.5325266287
     H    -2.7836775135   -0.1477244546    1.9418607353
     H    -2.2712234561   -1.2701360588    3.2213840698
