38
-2.2084874162685119e+03 frame 93   xyz file generated by TeraChem
    Ni    -0.4770118153    0.2505071917   -0.6806960624
     C     3.8075658216    0.7359910030   -2.7360194314
     C     2.6524247678    0.5064497983   -3.5031918910
     C     1.4283608083    0.3727104157   -2.8666368280
     N     1.2829995417    0.4637558379   -1.5278697643
     C     2.3902804948    0.6889374504   -0.7867521605
     C     3.6514172376    0.8240704633   -1.3402684821
     S     5.4230035010    0.9180900525   -3.4086744210
     H     2.6959727191    0.4281225825   -4.5843871023
     H     0.5254155976    0.1857844043   -3.4390153695
     H     2.2405769053    0.7629294623    0.2850480137
     H     4.5024230688    0.9986371137   -0.6900837069
     H     5.0785797287    0.7683434804   -4.7040127410
     C    -0.9240922851   -4.3722975041   -1.7663356470
     C     0.3496797585   -3.8346085816   -1.5210204756
     C     0.4717308084   -2.4841053102   -1.2387470107
     N    -0.5821618908   -1.6454182552   -1.1766546267
     C    -1.8143879971   -2.1627251776   -1.3865946228
     C    -2.0196759607   -3.4964054190   -1.6947125044
     S    -1.2239195408   -6.0658657195   -2.1473525058
     H     1.2412449146   -4.4523317298   -1.5428118305
     H     1.4466110696   -2.0530816943   -1.0467142245
     H    -2.6377231855   -1.4712557894   -1.2680634799
     H    -3.0317379672   -3.8496987663   -1.8625723183
     H     0.0590585398   -6.4757481400   -2.0788517078
     C    -0.7859613663    4.7806758660    0.7740209745
     C    -0.0981551321    4.4695796180   -0.4099611555
     C     0.0091524251    3.1460518627   -0.8032774564
     N    -0.5245274545    2.1230161921   -0.1051379744
     C    -1.2118907978    2.4192766752    1.0218067222
     C    -1.3481204506    3.7133851212    1.4932701763
     S    -0.9874928067    6.4155456752    1.3976983373
     H     0.3491275846    5.2417757241   -1.0269479169
     H     0.5373263814    2.8900974375   -1.7136311134
     H    -1.6738273369    1.5786950026    1.5210399200
     H    -1.9023981165    3.8848660951    2.4101344841
     H    -0.3329519415    7.0492216543    0.4033388763
     F    -2.0393874288    0.0481845877    0.0994083120
