13
-2.0877511644691913e+03 frame 30   xyz file generated by TeraChem
    Fe     0.2702888508    0.1075123302   -0.1198227461
     S     2.3639131296    0.5607027395    0.8710824072
     C     3.2133863556    1.5123080002   -0.2439217316
     N     3.8551646854    2.1653168842   -0.9787999734
     S    -1.2227724896   -0.6531774501   -1.7745433023
     C    -0.4152101378   -2.0487107413   -2.2933792407
     N     0.1106417355   -3.0173216840   -2.6989506166
     S    -0.6888234648    2.1606989500    0.2607860749
     C    -2.2280283254    2.2611308679   -0.4410825823
     N    -3.2970709969    2.4184318572   -0.8980182858
     N    -0.2048811540   -0.9645453886    1.3611820674
     C    -0.4880694092   -1.6245474376    2.2966959281
     S    -0.8752595295   -2.5530414386    3.6007949374
