14
-5.6615644729152427e+02 frame 41   xyz file generated by TeraChem
    Fe     0.5548307229    0.6889983291   -0.6351057807
     C     2.8325491867   -0.6160948326    0.6139573480
     O     2.2413690757   -0.0858050112   -0.3375393746
     H     2.3030376093   -0.8766819965    1.5400338905
     H     3.9044210962   -0.8219684927    0.5015722205
     C    -0.4487801077   -1.5288394588   -2.2719378159
     O     0.2139196327   -0.5074324136   -2.0579270540
     H    -1.0731361733   -1.9924740740   -1.4966830521
     H    -0.3955462820   -1.9677745784   -3.2768851470
     C    -1.5994184000    2.5922349991   -0.8410673302
     O    -0.6236089002    1.9942802868   -1.3172196896
     H    -2.0370964427    2.2957770658    0.1216567475
     H    -2.0169970592    3.4287247327   -1.4152689561
     F    -0.1586281902    0.4629671382    0.8689563977
