49
-1.5067382144914027e+03 frame 84   xyz file generated by TeraChem
    Co    -0.0356628002   -0.0149249278    0.0337491813
     C     2.6041820131   -3.9953404958    0.2336197794
     C     3.1369477708   -2.7640298123    0.6492635918
     C     2.3377699796   -1.6320303689    0.5858445956
     N     1.0677110699   -1.6596500042    0.1203930025
     C     0.5597122109   -2.8446959781   -0.2904273037
     C     1.2826480964   -4.0271657834   -0.2413949831
     C     3.3897941582   -5.1896836405    0.2916528277
     H     4.1536072436   -2.6932287301    1.0198329515
     H     2.7160823569   -0.6718127290    0.9195206437
     H    -0.4537905017   -2.8348694931   -0.6768673785
     H     0.8312605147   -4.9560557019   -0.5720375023
     N     4.0279413099   -6.1601086362    0.3382437720
     C    -0.7047033506   -0.7321178524   -4.6502865963
     C     0.5892105988   -0.5866644207   -4.1232773716
     C     0.7382574185   -0.3905222199   -2.7584786761
     N    -0.3138551289   -0.3147392674   -1.9102378463
     C    -1.5602100942   -0.4440608903   -2.4220267877
     C    -1.7979603982   -0.6620879315   -3.7710903836
     C    -0.9042178273   -0.9465026817   -6.0507409175
     H     1.4614459418   -0.6319551280   -4.7659787353
     H     1.7252173545   -0.2958374264   -2.3184750744
     H    -2.3856851508   -0.3654319232   -1.7223946410
     H    -2.8137245097   -0.7705093599   -4.1349881363
     N    -1.0660693643   -1.1209544199   -7.1885017929
     C    -2.6841029149    3.9605339699   -0.1948500599
     C    -1.5790316976    3.7804308519   -1.0428404319
     C    -0.8460713980    2.6070420533   -0.9475559126
     N    -1.1379054021    1.6324847829   -0.0552284304
     C    -2.1968116591    1.8119535589    0.7677798574
     C    -2.9952556462    2.9453506348    0.7247213950
     C    -3.4752428273    5.1505256977   -0.2663660735
     H    -1.3018732997    4.5389462094   -1.7665099756
     H    -0.0024524458    2.4286831212   -1.6052555459
     H    -2.3996040903    1.0226574311    1.4835742552
     H    -3.8409229430    3.0422103707    1.3965969815
     N    -4.1174624874    6.1176062258   -0.3246114286
     C     0.6996783583    0.6990408254    4.7011836927
     C     1.1003700056    1.6576393312    3.7560793408
     C     0.8563104903    1.4163208850    2.4120878539
     N     0.2638399730    0.2832855427    1.9682348720
     C    -0.1141343445   -0.6429785354    2.8802564243
     C     0.0739598180   -0.4723339624    4.2437795045
     C     0.9229965447    0.9112595424    6.0983556840
     H     1.5867751853    2.5762834979    4.0649792248
     H     1.1319262092    2.1506972493    1.6625739937
     H    -0.5746114977   -1.5481813489    2.4984337961
     H    -0.2533293251   -1.2375261850    4.9389577630
     N     1.1045722346    1.0832955807    7.2335040700
