13
-1.0271711665445671e+03 frame 65   xyz file generated by TeraChem
    Fe    -0.0007874276    0.4477171936   -0.7641693682
     O     1.9591809821    0.3183367238   -0.6375229368
     N     3.0099944160   -0.8098295972    1.2498169386
     C     2.5223318796   -0.2588518856    0.3270322147
     O    -0.8478360123   -1.0022778370   -1.8264950710
     N    -1.8607946034   -2.9146865355   -0.7081954069
     C    -1.3796065322   -1.9970521213   -1.2750649047
     O    -0.8322424110    2.1336345421   -1.1348500088
     N    -0.6801154783    4.3454723099   -0.1163540531
     C    -0.7357312276    3.2708344826   -0.5916967706
     S    -0.5040250376   -0.5155910982    1.5177770490
     H    -0.9744477433   -1.6952886380    1.0190992217
     H     0.7667107049   -0.9544773170    1.7412511176
