49
-2.6890177817028543e+03 frame 162   xyz file generated by TeraChem
    Mn    -0.0556932905   -0.0313337674   -0.0463114927
     C     4.8123571095    0.8756297088    0.5384051175
     C     3.9632387840    1.8188241976   -0.0776295607
     C     2.6155035126    1.5304153397   -0.2090217969
     N     2.0518809879    0.3764911497    0.2298482480
     C     2.8718893907   -0.5290470977    0.8251823605
     C     4.2288936607   -0.3275442176    0.9956057023
     S     6.5297999740    1.0932357167    0.7768872266
     H     4.3413133186    2.7651951277   -0.4501595398
     H     1.9499017677    2.2478821238   -0.6797291135
     H     2.4128799239   -1.4476396657    1.1808385729
     H     4.8273185900   -1.0932739288    1.4792689160
     H     6.6298486351    2.3175436488    0.2154458706
     C    -0.8308298415   -3.6066749403   -3.4154392575
     C     0.4734674010   -3.2664693413   -2.9990581126
     C     0.6445945108   -2.2501777536   -2.0750914559
     N    -0.3845376457   -1.5449596089   -1.5405757754
     C    -1.6398392692   -1.8753740757   -1.9431275456
     C    -1.9050329037   -2.8765612593   -2.8583191678
     S    -1.2073834994   -4.8621704378   -4.5703520574
     H     1.3463105669   -3.7800295047   -3.3886421216
     H     1.6437241691   -1.9761130741   -1.7500054782
     H    -2.4578899252   -1.3016054773   -1.5163445688
     H    -2.9321268351   -3.0852780684   -3.1409580281
     H     0.0601732662   -5.2604587571   -4.8127297173
     C    -2.4410500620    4.0839710313   -1.5332454311
     C    -1.8058579765    3.2327577502   -2.4624049598
     C    -1.1451470905    2.1064704805   -2.0025051745
     N    -1.0686681664    1.7686446635   -0.6899198444
     C    -1.6842856953    2.5879155785    0.2011176431
     C    -2.3662251406    3.7329626320   -0.1669394773
     S    -3.3145478285    5.5369718833   -1.9575452324
     H    -1.8240770216    3.4389158687   -3.5275791365
     H    -0.6559706381    1.4393486108   -2.7066951886
     H    -1.6248382539    2.3047661956    1.2475823494
     H    -2.8350991656    4.3456790150    0.5965873429
     H    -3.1288973097    5.4671928103   -3.2935975338
     C    -1.5226560112   -1.3027295734    4.5441518362
     C    -2.0916014779   -1.9202712519    3.4105540187
     C    -1.6663288867   -1.5387270903    2.1496272219
     N    -0.7212438370   -0.5898137436    1.9339970024
     C    -0.1691742302   -0.0029758169    3.0279936675
     C    -0.5332475602   -0.3183476428    4.3240207359
     S    -1.9560076730   -1.6732810309    6.1959937046
     H    -2.8549126220   -2.6859167334    3.5026102806
     H    -2.0946202011   -2.0101835855    1.2703487945
     H     0.5963680644    0.7457833946    2.8457530811
     H    -0.0561725633    0.1935739813    5.1538488549
     H    -2.8841487531   -2.6161989966    5.9244823033
