21
-1.5316624731868142e+03 frame 225   xyz file generated by TeraChem
    Cr     0.0898070624   -0.2767096834    0.2658588146
     C     5.1118842099    0.4809316958   -0.6936323055
     C     4.2693620941   -0.1041703147   -1.6379360364
     C     2.8666338895   -0.3131579308   -1.3255356317
     N     2.2933157108    0.0611713593   -0.1599162920
     C     3.1153856767    0.6430439158    0.7411551162
     C     4.5349444016    0.8547185606    0.5192703321
     H     6.1697459482    0.6384728841   -0.8939851546
     H     4.6324186530   -0.4311582959   -2.6114169130
     H     2.2396902230   -0.8081387208   -2.0643104799
     H     2.6834583251    0.9810016669    1.6809291935
     H     5.1148149784    1.3217777106    1.3142317990
     S     0.5017088265   -2.7976036433   -0.1325461481
     H    -0.6773971799   -3.2926459038   -0.5751194117
     H     0.4255052158   -3.3608912593    1.0961622536
     S    -0.1136836980    2.2824249897    0.6117136009
     H    -1.1060556374    2.4735269162    1.5094397914
     H    -0.8179011988    2.7190780023   -0.4586978461
     S    -2.3939070436   -0.7982849197    0.6412623511
     H    -3.0659348055    0.3738840482    0.5860976054
     H    -2.4925420196   -0.9332775900    1.9857950908
