17
-3.1205052658200464e+02 frame 42   xyz file generated by TeraChem
    Cr    -0.0376584729   -0.0007140465   -0.0500294615
     N     1.8866787830    0.3079018536   -0.9741047652
     H     2.3954922293    1.1310248004   -0.6353448818
     H     2.5373344167   -0.4732649113   -0.8376287156
     H     1.8346190352    0.4317422092   -1.9917390890
     N    -0.1665999900   -1.9876622736   -0.8504785221
     H     0.0422948390   -2.0389125326   -1.8540725425
     H     0.4737551698   -2.6606921102   -0.4138480171
     H    -1.0941866392   -2.4171490614   -0.7647078390
     N    -0.2280332562    2.1057970251    0.3414299497
     H     0.3192459863    2.4483913872    1.1396161054
     H     0.0549807445    2.6960363149   -0.4485332974
     H    -1.1923276417    2.3959657619    0.5369843836
     N    -1.4971706512   -0.4198654755    1.4798914407
     H    -1.3396729358   -1.3157991541    1.9542844730
     H    -1.5286522919    0.2687151588    2.2390707768
     H    -2.4603497283   -0.4716413037    1.1291612132
