22
-2.2646889497797702e+03 frame 93   xyz file generated by TeraChem
    Co     0.3507602823    0.7827068226    0.2428169453
     S     2.3130364654    1.8712149390    0.0442105827
     C     3.3669496206    0.8731070506   -0.8275825245
     N     4.1198561974    0.2092734286   -1.4268374617
     S     0.8437412108   -0.7939350510   -1.2650014220
     C    -0.6171971566   -1.6457020682   -1.2601941565
     N    -1.6319413858   -2.2290030213   -1.2679235459
     S    -0.6576231754    2.7642201026    0.5967450032
     C    -1.9925612247    2.4140401851    1.5726878705
     N    -2.9331364993    2.1969037592    2.2333085295
     C    -1.6053357729   -1.9153883978    3.6285133541
     C    -2.3943741216   -1.5224001745    2.5397744214
     C    -1.8397157093   -0.7290458074    1.5484075945
     N    -0.5568948938   -0.3221036073    1.5855192271
     C     0.2133062309   -0.6986722661    2.6310945375
     C    -0.2671735034   -1.4834369018    3.6615012816
     S    -2.1931832582   -2.9181997944    4.9543965979
     H    -3.4335449784   -1.8185934584    2.4512381824
     H    -2.4335112163   -0.4149388755    0.6996268975
     H     1.2426815539   -0.3541768108    2.6238278376
     H     0.3942680908   -1.7551821712    4.4770826632
     H    -3.4549408367   -3.0585605262    4.5002603907
