41
-2.1185613255421626e+03 frame 74   xyz file generated by TeraChem
    Fe    -0.2212157735    0.1098760095   -0.1389509497
     N     1.9061279652    0.3276111596   -0.4876217465
     H     2.1813710486    1.3134102569   -0.5399494866
     H     2.4927733996   -0.0805778926    0.2463763246
     H     2.2388774194   -0.0862713505   -1.3640819029
     C    -1.5911742341   -3.8009357090   -2.7482574289
     C    -0.3759086835   -3.8086315547   -2.0270501500
     C    -0.0179366837   -2.6906329339   -1.2968341213
     N    -0.7791132408   -1.5654882655   -1.2315263700
     C    -1.9490506600   -1.5584061388   -1.9266032260
     C    -2.3860601399   -2.6322590534   -2.6778344866
     S    -2.1762145175   -5.1251925373   -3.7184777485
     H     0.2836986378   -4.6703987523   -2.0305383443
     H     0.9102438009   -2.6898005226   -0.7327970977
     H    -2.5474916886   -0.6538698865   -1.8723473625
     H    -3.3306070931   -2.5632773509   -3.2085508506
     H    -1.1441932391   -5.9713726632   -3.5059053575
     C    -2.3064555977    4.3142441763   -1.5728329174
     C    -1.5465490361    3.5246170462   -2.4654997193
     C    -0.9921836347    2.3416587379   -2.0125783838
     N    -1.1373830221    1.8883229378   -0.7385477124
     C    -1.8717378920    2.6459706422    0.1179891222
     C    -2.4632041136    3.8404919910   -0.2492799785
     S    -3.0634942834    5.8283508910   -1.9882505640
     H    -1.3854767439    3.8235975073   -3.4962037570
     H    -0.4067528868    1.7258991062   -2.6896548378
     H    -1.9875466540    2.2709536895    1.1297996880
     H    -3.0373382754    4.3993078499    0.4833449250
     H    -2.6465887896    5.8898838207   -3.2725269099
     C    -0.8578031748   -0.6197654552    4.6612688670
     C    -1.4831374211   -1.4520588255    3.7061317403
     C    -1.3009212522   -1.1920613758    2.3597598378
     N    -0.5409628900   -0.1649989802    1.8946235366
     C     0.0561037140    0.6395440906    2.8171793211
     C    -0.0710364269    0.4537458323    4.1793387176
     S    -0.9893106271   -0.8196459332    6.3876683317
     H    -2.1052883246   -2.2901608455    4.0028495124
     H    -1.7749779065   -1.8226650147    1.6144822359
     H     0.6597027987    1.4592009929    2.4374945705
     H     0.4373878178    1.1287846495    4.8609388708
     H    -1.7960770920   -1.9036899340    6.3787054728
