31
-1.7862878236967474e+03 frame 14   xyz file generated by TeraChem
    Fe    -0.2657755703   -0.2526789117   -0.0285829277
     S     1.8839952164   -0.6058258815    0.2813495153
     C     2.4606640415   -0.1075513964   -1.2321719527
     N     2.8310335751    0.3036440072   -2.2703439877
     S    -1.2683208748   -1.2045503263   -1.7378312543
     C    -1.0040927307   -2.7518199835   -1.0922299368
     N    -0.8428602787   -3.7885334166   -0.5587728444
     C    -1.7282174265    4.0674592219   -1.3195912609
     C    -0.4709728939    3.5808561996   -1.7258393716
     C    -0.0726534512    2.3105258140   -1.3210731608
     N    -0.8605907695    1.5305593925   -0.5358733404
     C    -2.0776456246    1.9914202052   -0.1440890752
     C    -2.5434040353    3.2467795451   -0.5141003606
     C    -2.1736343657    5.3702128750   -1.7162853006
     H     0.1873040011    4.1780806610   -2.3522594568
     H     0.8856245563    1.8991023669   -1.6343303483
     H    -2.6789257549    1.3273903846    0.4730537123
     H    -3.5239240272    3.5818150493   -0.1846246915
     N    -2.5384718251    6.4336764628   -2.0338902783
     C    -1.1151769402   -0.7591238274    4.6392299927
     C    -0.6307561497    0.4730820827    4.1555892167
     C    -0.3964342467    0.6156650266    2.7934055761
     N    -0.6222274287   -0.3924497334    1.9121186307
     C    -1.0803058069   -1.5868515966    2.3736406876
     C    -1.3401020872   -1.8045465910    3.7227708002
     C    -1.3698937927   -0.9428813220    6.0372230645
     H    -0.4363637288    1.3018815325    4.8321061200
     H    -0.0116365660    1.5455943490    2.3819049225
     H    -1.2262901474   -2.3811695491    1.6422131313
     H    -1.7052681588   -2.7736846329    4.0541500437
     N    -1.5803635685   -1.0881897989    7.1771903530
