13
-1.8124178029736886e+03 frame 113   xyz file generated by TeraChem
    Fe     0.5350950914    0.0760864223    0.1428720912
     S     2.9078735717   -0.2868868457    0.3812885444
     C     2.2761091867    0.4639608743   -0.9585004459
     N     1.4721806173    0.9286598898   -1.7063653611
     S    -0.9069898121   -1.2259022999   -1.3978899277
     H    -0.6582035002   -2.5240767232   -1.1202465480
     H    -0.0983948550   -1.1855905540   -2.4777094327
     S    -0.6511489367    2.2323876048    0.3327377029
     H    -0.5878806449    2.5847961837   -0.9684463586
     H    -1.9573337464    1.8911969488    0.2954870912
     S    -0.3456128936   -0.8397156415    2.1311193568
     H     0.4046795655   -1.9541699235    2.2797878395
     H     0.3414990565   -0.1489232648    3.0686612026
