37
-1.7273653631297195e+03 frame 60   xyz file generated by TeraChem
    Ni    -0.4149528984    0.4207813202    0.4323326815
     C     1.9556013714    1.9881018577    1.5537985412
     N     1.0566523846    1.3946484317    1.1328144258
     C     3.0869753983    2.7334593264    2.0838620451
     H     2.9972318318    2.8199185750    3.1719158123
     H     3.1116825085    3.7356132055    1.6432556438
     H     4.0188230462    2.2110707198    1.8416411748
     C    -2.7863331000   -1.1418937869   -0.6933667834
     N    -1.8864469264   -0.5521500160   -0.2691887558
     C    -3.9181279968   -1.8821120429   -1.2297227267
     H    -3.5594898152   -2.6643296503   -1.9075317793
     H    -4.5772713767   -1.2035602486   -1.7814079995
     H    -4.4802740454   -2.3458296725   -0.4123189062
     C    -0.8392878698    3.5792955238   -3.0733203601
     C    -0.0470895843    2.4235521852   -3.2231415568
     C     0.0538866951    1.5237795805   -2.1773037084
     N    -0.5813488455    1.7067939376   -0.9993468457
     C    -1.3466610810    2.8111516284   -0.8407399480
     C    -1.4981918006    3.7545117370   -1.8377943476
     S    -1.0559517555    4.7997969320   -4.3085342327
     H     0.4889099105    2.2189823580   -4.1437998732
     H     0.6576855864    0.6273751542   -2.2769475516
     H    -1.8444847988    2.9325456649    0.1161082019
     H    -2.1246510872    4.6216330158   -1.6555072101
     H    -0.2794197416    4.2215880561   -5.2475664097
     C     0.0092505789   -2.7356749588    3.9395275586
     C    -0.7845216299   -1.5808186323    4.0878953349
     C    -0.8855372526   -0.6817304784    3.0414677676
     N    -0.2488259861   -0.8646047664    1.8642898390
     C     0.5180012402   -1.9680933502    1.7070972391
     C     0.6696276599   -2.9107433335    2.7047831569
     S     0.2261544229   -3.9552516295    5.1755982097
     H    -1.3217400460   -1.3764345695    5.0078868002
     H    -1.4906002999    0.2139600768    3.1399649837
     H     1.0169709547   -2.0894002481    0.7508436809
     H     1.2972916650   -3.7772179194    2.5236072066
     H    -0.5520354153   -3.3774914420    6.1135352649
