49
-2.0770640789903591e+03 frame 59   xyz file generated by TeraChem
    Mn    -0.0982119130    0.0029103228    0.0130046946
     C     4.7582433998    0.8348163509    0.5039039767
     C     3.9145679196    1.8356179374   -0.0086817195
     C     2.5551388135    1.5810349344   -0.1023090882
     N     1.9946890522    0.4067022853    0.2820874560
     C     2.8162858318   -0.5548827806    0.7772321327
     C     4.1859915345   -0.3863153821    0.9033948186
     C     6.1660811178    1.0529799037    0.6185707354
     H     4.3168570339    2.7907265530   -0.3282415968
     H     1.8825989352    2.3370909843   -0.4958357510
     H     2.3536718701   -1.4906682736    1.0806482987
     H     4.8025768005   -1.1847522557    1.3017973697
     N     7.3111764612    1.2304262365    0.7150646157
     C    -0.8494641253   -3.5244311032   -3.3712346643
     C     0.4507664641   -3.1304857979   -3.0113034907
     C     0.6089627022   -2.1296823776   -2.0649579503
     N    -0.4377189186   -1.5065456659   -1.4662133796
     C    -1.6908106638   -1.8909159914   -1.8222717841
     C    -1.9401344394   -2.8826662664   -2.7565982079
     C    -1.0614059460   -4.5518460299   -4.3417441714
     H     1.3186203004   -3.5981701806   -3.4635520051
     H     1.6031730774   -1.8065312929   -1.7720900473
     H    -2.5181261890   -1.3760477722   -1.3408380212
     H    -2.9590665217   -3.1562217558   -3.0082129133
     N    -1.2370326281   -5.3866927540   -5.1318766870
     C    -2.4947162293    4.0696700229   -1.6681662817
     C    -1.9691741502    3.0993873886   -2.5492185581
     C    -1.3050247578    2.0044453356   -2.0176185805
     N    -1.1250079051    1.8168798955   -0.6854233048
     C    -1.6378599267    2.7471492181    0.1574447193
     C    -2.3171593372    3.8730301953   -0.2790195907
     S    -3.3542105471    5.5027748186   -2.1775583295
     H    -2.0680459414    3.1895354621   -3.6262735290
     H    -0.8957329614    1.2457785813   -2.6780425120
     H    -1.4890973911    2.5805751275    1.2195249937
     H    -2.6972141946    4.5861133461    0.4461439884
     H    -3.2870685816    5.2899392542   -3.5117861847
     C    -1.4591416474   -1.3915287314    4.6356590004
     C    -0.4581739178   -0.4171811378    4.4279442901
     C    -0.1292185878   -0.0635706175    3.1281651876
     N    -0.7230140662   -0.6058297689    2.0349347355
     C    -1.6839163245   -1.5400618604    2.2392741012
     C    -2.0798741100   -1.9596600944    3.4994815539
     S    -1.9837985754   -1.9503784532    6.2055294281
     H     0.0617253754    0.0552046194    5.2553269110
     H     0.6478836184    0.6732845235    2.9479998586
     H    -2.1435839823   -1.9737495521    1.3570219850
     H    -2.8516601311   -2.7174225021    3.5949343647
     H    -1.1614805701   -1.1819052870    6.9561299316
