22
-2.2060099900354976e+03 frame 33   xyz file generated by TeraChem
    Cr     0.1934876146   -0.0141123955    0.0684509668
     N     1.9963838863   -0.2055603886    0.4029276369
     C     3.1561800089   -0.3201970414    0.6961705448
     S     4.6916877151   -0.4814808723    1.0823726991
     N    -0.4323488270   -1.2420611120   -1.1569513425
     C    -0.8798891853   -1.8813387049   -2.0696605988
     S    -1.4740325082   -2.7622798808   -3.2589395665
     N    -0.5677837223    1.6531256880   -0.2314452578
     C    -1.0235665733    2.6768520546   -0.6653278941
     S    -1.6466299655    4.0468027605   -1.1921158349
     C    -1.7888280189   -1.3273311274    4.2441269007
     C    -1.8030817975    0.0125299200    3.8265360630
     C    -1.2244774259    0.3512218978    2.6143925032
     N    -0.6444506902   -0.5625883651    1.8070110396
     C    -0.6340763545   -1.8554321391    2.2003781205
     C    -1.1854243990   -2.2735810786    3.3977106110
     S    -2.4859550023   -1.8882449821    5.7642022705
     H    -2.2578094744    0.7906863983    4.4302683829
     H    -1.2241683270    1.3736836769    2.2530074013
     H    -0.1696888332   -2.5584051836    1.5173765908
     H    -1.1492406903   -3.3246153256    3.6639737867
     H    -2.9255180857   -0.6872313225    6.1918108784
