9
-4.7250034954387166e+02 frame 38   xyz file generated by TeraChem
    Ni     0.3155160316   -0.1741750187   -0.2562197680
     O     2.1830106949    0.3458113821   -0.0458051480
     H     1.8643945823    1.2679126897   -0.1183118385
     O    -0.7880953009   -1.3609803369   -1.3974838388
     H    -0.9912084579   -1.9940856200   -0.6867187963
     O    -0.1546189433    1.8058784917   -0.4226010206
     H    -0.3591724456    1.8695472290    0.5268174546
     O    -0.5878894252   -0.8713591246    1.3917032871
     H    -1.4820340023   -0.8885972888    1.0085928948
