13
-1.6732341418413916e+03 frame 20   xyz file generated by TeraChem
    Fe    -0.0761520190   -0.0896360250   -0.5232210552
     N     1.8320706304   -0.5425606317   -0.1952587000
     C     2.9631201628   -0.8500547834    0.0086860042
     S     4.5038959402   -1.2617469485    0.3060666717
     N    -1.1757482039   -1.1852060903   -1.6856278153
     C    -1.8200387582   -1.8268165053   -2.4518230424
     S    -2.7029627828   -2.7062323692   -3.4887132958
     N    -0.5288573361    1.8193861497   -0.1958414840
     C    -0.8372737187    2.9502331752    0.0076595269
     S    -1.2507796785    4.4909684985    0.3035736601
     O    -0.2781368460   -0.2898623143    1.7297629928
     H     0.6703683260   -0.4332403444    1.9010211422
     H    -0.4201552760    0.6591856705    1.8992417680
