65
-1.6240381911759223e+03 frame 148   xyz file generated by TeraChem
    Ni    -0.1607118363   -0.4093690660    0.7228617590
     C     1.1319117656    0.8313098472    1.3151988845
     N     1.9258687913    1.5902021798    1.6795246714
     C     3.5569741101    2.0330882002    3.4680915432
     C     2.9843503182    2.3879942575    4.6959825030
     C     3.5710083334    1.9594426621    5.8865111293
     C     4.7283311418    1.1774736566    5.8527178039
     C     5.3013548178    0.8233822467    4.6286420996
     C     4.7170388085    1.2492834985    3.4357406113
     H     2.0955881308    3.0143273265    4.7250228902
     H     3.1354009649    2.2488989172    6.8379228624
     H     6.2113356588    0.2316865299    4.6029320930
     H     5.1770014537    0.9912137313    2.4844370038
     H     5.1924412739    0.8571748177    6.7806980820
     C     2.9347402094    2.5161751972    2.1774261793
     H     3.6690469513    2.6137917871    1.3718773165
     H     2.4235266626    3.4765781640    2.2948530168
     C    -1.4521049554   -1.6499926998    0.1270781759
     N    -2.2460498703   -2.4068117415   -0.2416178349
     C    -4.2443266951   -2.6256236706   -1.6610505430
     C    -5.3751718905   -1.9840089847   -1.1400602894
     C    -6.2821243105   -1.3665988255   -2.0009296274
     C    -6.0625286500   -1.3897904763   -3.3807037863
     C    -4.9358622487   -2.0305070521   -3.9019245960
     C    -4.0253053918   -2.6475445990   -3.0439709363
     H    -5.5602847440   -1.9847237397   -0.0681879060
     H    -7.1670040241   -0.8841840267   -1.5971744324
     H    -4.7748300990   -2.0645507048   -4.9750957889
     H    -3.1597733252   -3.1636439833   -3.4531674423
     H    -6.7777081313   -0.9220804531   -4.0506927649
     C    -3.2722035789   -3.3173324170   -0.7319032176
     H    -2.7352957636   -4.1331515987   -1.2256476286
     H    -3.7618608606   -3.7202947290    0.1601252719
     C    -0.7478838497    0.8368086698   -0.5671169507
     N    -1.1033660621    1.6071758450   -1.3540168040
     C    -1.0459092695    3.9997862594   -1.9189251446
     C    -1.8369484186    4.8080687460   -1.0929221824
     C    -1.3998648421    6.0863847227   -0.7464453404
     C    -0.1743615798    6.5583151714   -1.2234198727
     C     0.6151294246    5.7538455203   -2.0488781665
     C     0.1817185645    4.4746684846   -2.3973073324
     H    -2.8000280027    4.4496919628   -0.7365718156
     H    -2.0214477105    6.7182126767   -0.1194837037
     H     1.5577687712    6.1286045970   -2.4360191645
     H     0.7866517750    3.8588679905   -3.0591650545
     H     0.1577964826    7.5591477964   -0.9644351440
     C    -1.5269394559    2.6207501328   -2.3111132149
     H    -1.1278510752    2.3005614918   -3.2785292530
     H    -2.6184508670    2.5546164479   -2.3510917093
     C     0.4283867742   -1.6521267918    2.0153414103
     N     0.7918052245   -2.4157800633    2.8051824385
     C     1.1300282981   -4.8183359373    3.2025953525
     C     2.1639835476   -5.3505320477    2.4218369973
     C     2.0603671215   -6.6479800886    1.9217713639
     C     0.9268594807   -7.4156643416    2.2017402272
     C    -0.1039760019   -6.8873771622    2.9824718696
     C    -0.0055043477   -5.5884963393    3.4818316552
     H     3.0561464217   -4.7618494796    2.2202761768
     H     2.8684458563   -7.0645248807    1.3283764639
     H    -0.9758686378   -7.4909391250    3.2156048603
     H    -0.7996137130   -5.1852477773    4.1061821427
     H     0.8538969180   -8.4307090031    1.8231403386
     C     1.2485547327   -3.4173879887    3.7596870385
     H     2.2816697499   -3.1483357794    4.0002894412
     H     0.6383496351   -3.2742340801    4.6566519381
