9
-1.1219958809923692e+03 frame 157   xyz file generated by TeraChem
    Fe     0.3330496837    0.1055495968    0.0013688821
     F     1.7813765354    0.7853863348    0.7466921232
     F    -0.6741478477   -0.9287725596   -1.0303661148
     S    -0.9836406478    2.2897435619   -1.0417622519
     H    -1.9959569756    2.4038296937   -0.1558295380
     H    -1.6346480213    1.3660967415   -1.7805766358
     S    -0.9135187265   -0.1980272018    2.4226750648
     H     0.2553022988    0.0989222231    3.0283826418
     H    -0.7342176374   -1.5313872835    2.5299402477
