41
-1.1354677582818429e+03 frame 55   xyz file generated by TeraChem
    Co     0.1531562804   -0.1624031311   -0.2026045629
     N    -0.7264348016   -1.4841775048   -1.4945335514
     N    -1.1749777152   -1.0405151086    1.0837863080
     C    -0.4278074923   -1.6333995245   -2.7988962289
     H     0.3556186182   -0.9927032280   -3.1923427241
     C    -1.0800247738   -2.5556817851   -3.6098913419
     H    -0.8105386411   -2.6462705575   -4.6563476211
     C    -2.0772203098   -3.3476930511   -3.0411919534
     H    -2.6102452982   -4.0792062109   -3.6406655685
     C    -2.3892349704   -3.1948254439   -1.6891853803
     H    -3.1635760192   -3.8082469223   -1.2448651157
     C    -2.8945853586   -2.6951652943    1.2690568822
     H    -3.5109598673   -3.4648106766    0.8207019247
     C    -3.0492911009   -2.3864816511    2.6216083714
     H    -3.7850546334   -2.9175403837    3.2176156073
     C    -2.2535484318   -1.3951672513    3.1953644091
     H    -2.3453687404   -1.1285057156    4.2424359519
     C    -1.3259710829   -0.7450920447    2.3886765773
     H    -0.6824247922    0.0339274618    2.7862102076
     C    -1.6975986607   -2.2515805014   -0.9289921512
     C    -1.9457658214   -2.0061583954    0.5134178740
     N     2.1760168820    0.0156045735    0.0664129860
     N     0.3332460974    1.8608385257   -0.4677409579
     C     3.0340606978   -0.9851457111    0.3408318517
     H     2.6033739941   -1.9785063675    0.4181870645
     C     4.3964219575   -0.7701464730    0.5159011563
     H     5.0549472749   -1.6031613800    0.7357056869
     C     4.8795512068    0.5331196587    0.4014586055
     H     5.9366342547    0.7434768992    0.5313895594
     C     3.9925498157    1.5729307978    0.1174625816
     H     4.3657950626    2.5858683320    0.0286443940
     C     1.8919464909    3.6763894698   -0.5115406403
     H     2.9049526896    4.0486883876   -0.4196207720
     C     0.8533508531    4.5646726055   -0.7959654536
     H     1.0647015838    5.6218830056   -0.9232042186
     C    -0.4499899702    4.0826869720   -0.9143399509
     H    -1.2820602618    4.7422480101   -1.1346062454
     C    -0.6663159223    2.7201117484   -0.7425873201
     H    -1.6597912468    2.2902560214   -0.8230106747
     C     2.6360064761    1.2913736782   -0.0472785204
     C     1.6090705813    2.3196936307   -0.3503076905
