17
-5.4464546190991803e+02 frame 68   xyz file generated by TeraChem
    Co     0.0552196784   -0.0356373714    0.0120656450
     N     2.1347878577    0.0931946496    0.1563824592
     H     2.5184156486    1.0104101479   -0.0882917691
     H     2.4690604203   -0.1055650244    1.1055798807
     H     2.6111793475   -0.5844474979   -0.4481696307
     C    -1.1272812579   -2.0073054304   -2.2006460362
     O    -0.5592458294   -1.3765537729   -1.3112439259
     H    -2.0849289949   -1.6611579382   -2.6124525589
     H    -0.6777715786   -2.9297837754   -2.5911458789
     C    -0.5511610951    3.0555327211   -0.5573767000
     O    -0.2667347457    1.8855054530   -0.3072029177
     H    -0.7534012991    3.7632437551    0.2576840798
     H    -0.6019201666    3.4055413254   -1.5971651351
     C    -1.5174163148   -1.1341698914    2.5676147705
     O    -0.8161312586   -0.8301277019    1.6049367545
     H    -1.1424265006   -1.8426914835    3.3180097922
     H    -2.5216430638   -0.7060187010    2.6891335679
