9
-5.1650323924049485e+02 frame 17   xyz file generated by TeraChem
    Co    -0.0113365021    0.0015090730    0.0012603244
     C     1.8022643221    0.3789803140    0.3807621209
     N     2.9393634330    0.5720489127    0.5749281256
     C    -1.2131119825   -1.0334067408   -1.0330406323
     N    -1.9099644975   -1.6970700291   -1.6977896281
     C    -0.2971855328    1.6087975219   -0.9565788570
     N    -0.5036332686    2.6226212301   -1.5020621229
     C    -0.2996183525   -0.9544101262    1.6092107359
     N    -0.5068797431   -1.4991170314    2.6232810085
