13
-1.9043150526696222e+03 frame 169   xyz file generated by TeraChem
    Fe     0.2303656042   -0.1090680264   -0.0614976686
     S     2.2723662756    0.8684716973    0.3787887662
     C     2.3907128738    2.0459691509   -0.8286675710
     N     2.4009098297    2.8662025266   -1.6651411719
     S    -1.1721119345   -1.5247407898   -1.2320532920
     C    -1.0853868559   -2.9647460034   -0.3535903875
     N    -1.0079241619   -3.9211593493    0.3184996117
     S    -0.8750313171    1.8180942576   -1.0938917144
     H     0.2160611945    2.4895230959   -1.5527836876
     H    -1.2182724114    1.3247391468   -2.3025018185
     S     0.4507415995   -1.3044201303    2.1003615817
     H    -0.1023674833   -2.4956704823    1.7380362264
     H    -0.6828475964   -0.8449724316    2.6732984017
