8
-5.3763938631314966e+02 frame 51   xyz file generated by TeraChem
    Fe     0.1640651842    0.1895273048   -0.1552988247
     C     3.0293611269   -0.1097000157    0.1507201293
     O     2.0412183771    0.4979260835   -0.3902454359
     H     2.8737047803   -0.7884909459    0.9951624995
     H     4.0385011176    0.0349114544   -0.2491657028
     F    -0.3695977240   -1.0364402791   -1.4062790223
     F    -0.6392156115    1.7925617332   -0.4193803816
     F    -0.0332384174   -0.5798960616    1.4740186431
