9
-4.0729610615092520e+02 frame 76   xyz file generated by TeraChem
    Mn    -0.1675912781    0.0996104998    0.1275860984
     O     1.4381335054    0.9627648158   -0.1307774885
     H     2.1555951526    0.3312453168    0.0378704573
     O    -0.4548842703   -1.5450311123   -0.6609501545
     H    -0.3953377948   -1.4430480974   -1.6242862892
     O    -1.0572327217    1.5957587118   -0.4340977031
     H    -0.3472415678    2.2326221276   -0.6333812515
     O    -0.4611999971   -0.6575179287    1.7629489791
     H    -0.7103568313   -1.5764542798    1.5550595070
