35
-9.3098734089628931e+02 frame 74   xyz file generated by TeraChem
    Ni    -0.3119449146    0.2761927038    0.3196332154
     C     2.0339933625    1.8881257583    1.4053585371
     N     1.1403609411    1.2778974158    0.9967460838
     C     3.1580320410    2.6547352775    1.9198708785
     H     3.2067009607    2.5550351247    3.0095518305
     H     3.0380509131    3.7116578260    1.6595120359
     H     4.0904622729    2.2803913406    1.4833742828
     C    -2.6599429356   -1.3316841549   -0.7677813578
     N    -1.7645282180   -0.7248084521   -0.3580816692
     C    -3.7858931524   -2.0938720289   -1.2846808255
     H    -3.4262132287   -2.8552161631   -1.9854077021
     H    -4.4792010639   -1.4249035366   -1.8054370327
     H    -4.3111665251   -2.5855054477   -0.4588371933
     C    -1.5645111056    3.9131449081   -2.3816193114
     C    -0.7193233109    2.9206590377   -2.8815773329
     C    -0.3678549053    1.8580569959   -2.0578086988
     N    -0.8223784543    1.7659287886   -0.7909729384
     C    -1.6385364182    2.7212710158   -0.2993885282
     C    -2.0303878947    3.8097518609   -1.0694059870
     H    -1.8548433008    4.7537073838   -3.0044343046
     H    -0.3338215734    2.9621887430   -3.8946046818
     H     0.2852615049    1.0641001140   -2.4048085122
     H    -1.9761110533    2.6035938619    0.7253821091
     H    -2.6883065226    4.5584150168   -0.6413273985
     C     0.9398043225   -3.3603516075    3.0215588390
     C     0.0950476197   -2.3674109098    3.5213376541
     C    -0.2561403786   -1.3049167777    2.6973183171
     N     0.1982488437   -1.2133263814    1.4304009046
     C     1.0139618248   -2.1691071048    0.9390074544
     C     1.4055286190   -3.2575036669    1.7092667279
     H     1.2299257451   -4.2008424280    3.6445620954
     H    -0.2903296807   -2.4085332007    4.5344311628
     H    -0.9089240936   -0.5106003897    3.0441568242
     H     1.3514241069   -2.0518528501   -0.0858459840
     H     2.0630984863   -4.0065471873    1.2813321676
