16
-9.7947867544436394e+02 frame 45   xyz file generated by TeraChem
    Co     0.0305459596   -0.1128984415    0.4189858743
     S     2.3346652845    0.1963556886    0.6691616659
     C     1.9873237400    0.6407089037   -0.9205181195
     N     1.5682572041    0.9095832852   -1.9870553293
     C    -0.2804765127   -1.7377367075   -2.1068080824
     O    -0.5576624079   -1.5271344601   -0.9282703751
     H    -0.7247310632   -2.6067409054   -2.6097478037
     H     0.3993225175   -1.0753864787   -2.6608508135
     C    -0.8718188493    2.5645313360   -0.6319054300
     O    -0.9634164061    1.6505947498    0.1842185950
     H    -1.5170068522    3.4455245885   -0.5183595890
     H    -0.1575618091    2.5156744316   -1.4658662512
     C    -0.6291582632   -1.2190340278    3.1626716492
     O    -0.9527286387   -0.8627084501    2.0359132260
     H    -1.3972643615   -1.5916124184    3.8526712260
     H     0.4139315864   -1.1784463931    3.5088430847
