23
-4.2717954859250091e+02 frame 45   xyz file generated by TeraChem
    Fe    -0.0956222939   -0.2331616648    0.0191067945
     N     1.8152230509    0.2430611349    0.4728619806
     H     1.9689063975    0.9731600057    1.1836512719
     H     2.3421800362   -0.5782776065    0.8135767449
     H     2.3484186283    0.5596524254   -0.3534481362
     N    -1.2574267864   -1.5544581838   -0.9784396380
     H    -1.0327236255   -2.5304452621   -0.7227868364
     H    -2.2794148242   -1.4836504018   -0.8568865734
     H    -1.1136728346   -1.5217644475   -2.0016633566
     C    -0.4809347504    2.7327778026   -0.1726874193
     N    -0.7306015393    1.3964592034   -0.8355494909
     H    -0.2944841009    1.4094008845   -1.7750334825
     H    -1.7415433453    1.2979285593   -1.0131081047
     H     0.5906894125    2.9065964932   -0.0698484387
     H    -1.0005160027    2.7802047587    0.7862327495
     H    -0.8990534997    3.5085088921   -0.8321498484
     C    -0.4311702184   -1.5609108224    2.5437002270
     N    -0.8665267521   -0.3222098718    1.7960176157
     H    -0.6102817654    0.5159384359    2.3390497891
     H    -1.8948568898   -0.3034265498    1.7228886121
     H     0.6394558167   -1.5186349116    2.7525946358
     H    -0.7050112379   -2.4635129977    1.9911356342
     H    -0.9708816780   -1.5765814782    3.5050712600
