47
-1.2806338865626046e+03 frame 1000   xyz file generated by TeraChem
    Mn     0.0231261198   -0.0941569007    0.0136238615
     C     4.9208110223    0.2785059868   -0.8174058619
     C     4.0402644561    1.3183905517   -1.1825031689
     C     2.6856641011    1.1597459018   -0.9282576396
     N     2.1689708072    0.0502522434   -0.3424360390
     C     3.0228175151   -0.9456971605    0.0089308338
     C     4.3912046581   -0.8781720296   -0.2064010885
     C     6.3187394896    0.3941940567   -1.0598158617
     H     4.4107929797    2.2236037815   -1.6518820891
     H     1.9856392734    1.9443280195   -1.1984083157
     H     2.5898276090   -1.8207489750    0.4851048097
     H     5.0374286430   -1.6971669622    0.0916976580
     N     7.4679492815    0.4891139761   -1.2578649733
     C    -2.2274674165   -3.4703228411   -2.8554953316
     C    -0.8435966110   -3.5611092519   -2.5995576966
     C    -0.2536684381   -2.5941427305   -1.8002324559
     N    -0.9488242214   -1.5673646163   -1.2459511414
     C    -2.2779762200   -1.4799578397   -1.5032891464
     C    -2.9555544745   -2.3999226934   -2.2909088349
     C    -2.8799110118   -4.4343896423   -3.6740801128
     H    -0.2503885566   -4.3675262554   -3.0176609230
     H     0.8115526647   -2.6355547326   -1.5961702591
     H    -2.8110867121   -0.6443540836   -1.0592431296
     H    -4.0212970331   -2.2967661744   -2.4662988660
     N    -3.4175541418   -5.2269472399   -4.3466125265
     C    -2.1445380821    4.3107561269   -0.9802581611
     C    -1.7403289887    3.4715925218   -2.0210903442
     C    -1.1379779681    2.2429574662   -1.7127404234
     N    -0.9345460697    1.8206625892   -0.4411154531
     C    -1.3397824485    2.6381536978    0.5615766101
     C    -1.9368306888    3.8868036906    0.3334445165
     H    -2.6097964660    5.2699215173   -1.1881578540
     H    -1.8681457814    3.7571551830   -3.0606200022
     H    -0.8004872674    1.5844687768   -2.5084883773
     H    -1.1999741775    2.2780981606    1.5764484194
     H    -2.2424697412    4.4945940988    1.1792427377
     C    -0.5627912061   -0.9283767194    4.9007993293
     C    -1.4441180442   -1.4861068073    3.9731225588
     C    -1.2569187141   -1.2205740936    2.6089610733
     N    -0.2465060080   -0.4471479633    2.1397355901
     C     0.6096293876    0.0810691057    3.0481069257
     C     0.4803522388   -0.1278555550    4.4289132420
     H    -0.6844417067   -1.1127459547    5.9641940705
     H    -2.2754268521   -2.1099098717    4.2862275168
     H    -1.9397093677   -1.6362386815    1.8737997520
     H     1.4318873217    0.6755649432    2.6594822687
     H     1.1987719599    0.3223643130    5.1067805272
