11
-4.8029606088979688e+02 frame 39   xyz file generated by TeraChem
    Co     0.2277909476   -0.0500015586    0.0488344248
     C     1.6440811003    0.1765790272   -1.1790484124
     N     2.5213354230    0.3153162253   -1.9411205222
     C     0.0840037932   -1.9533881476   -0.2801788785
     N    -0.1717322523   -3.0948867061   -0.3555453759
     C     0.1512690761    1.8301809664    0.5121622327
     N    -0.0534812261    2.9199153725    0.8918256595
     N    -1.2904957258   -0.3118453184    1.3974544765
     H    -1.9105979226    0.4956675418    1.4002858467
     H    -1.8034979375   -1.1684039261    1.1965344311
     H    -0.8853660361   -0.3915662623    2.3288684406
