29
-1.2735095471904121e+03 frame 53   xyz file generated by TeraChem
    Fe    -0.2216012729    0.2235804007    0.0509503777
     O     1.7687691173   -0.0928500156    0.4081402593
     C     2.3732265122    0.0022764934    1.6702220239
     C     3.7123470796   -0.0400506040    1.5165821147
     C     3.9853995008   -0.1682284452    0.1056475917
     C     2.7981204994   -0.1978157407   -0.5343472184
     H     1.6872217950    0.0700904976    2.4999123992
     H     4.4407712729    0.0048915544    2.3139452129
     H     2.4871046542   -0.3005717889   -1.5624360042
     H     4.9580686443   -0.2382942424   -0.3609662846
     O    -0.5149386743   -1.0879213503   -1.5248822478
     C    -0.7040553701   -2.4523572757   -1.2773053142
     C    -0.5309675678   -3.1389017485   -2.4263501156
     C    -0.2140176632   -2.1818542621   -3.4568603635
     C    -0.2100048419   -0.9585944632   -2.8851115178
     H    -0.9648918821   -2.7076873851   -0.2613730275
     H    -0.6262263009   -4.2090528904   -2.5447989623
     H    -0.0616586210    0.0520661543   -3.2315626474
     H    -0.0239507218   -2.3939516421   -4.4998288393
     O    -0.7860670817    1.9100546439   -0.9987766544
     C    -1.9701677653    2.0202222502   -1.7428605505
     C    -2.3080740493    3.3214024820   -1.8471662986
     C    -1.3104551445    4.0854183350   -1.1388625416
     C    -0.4156207469    3.2108328482   -0.6361491364
     H    -2.3936047388    1.0882926385   -2.0821457845
     H    -3.1711837597    3.7110969096   -2.3684461056
     H     0.4866771597    3.2912581221   -0.0502738865
     H    -1.2765496567    5.1602226067   -1.0290751717
    Cl    -1.1963077788   -0.0618359578    1.9834091412
