11
-1.6297332301819595e+03 frame 32   xyz file generated by TeraChem
    Co    -0.0710529323    0.1083460716   -0.0897444688
     S     1.8518309420   -0.2000118475   -1.0983965187
     C     3.0593897902    0.5499949643   -0.1722982974
     N     3.9803999890    1.0373473290    0.3588354206
     S    -1.1999207473   -0.8021856909   -1.8496063337
     C    -1.2843496734   -2.3262978133   -1.1149435813
     N    -1.3592263256   -3.3886562927   -0.6257400020
     S    -0.4857407622    2.2374607985   -0.4573586861
     C    -0.8490022280    2.3556852788   -2.1092172545
     N    -1.1138164104    2.5074206398   -3.2390466856
     I     0.4254009614    0.3696337685    2.4087588796
