35
-8.8459901044085177e+02 frame 38   xyz file generated by TeraChem
    Fe     0.1787171817    0.0780846922   -0.0547049509
     C     3.2807916856    0.6016398411   -0.6426396750
     N     2.1810742361    0.3799529884   -0.3423395768
     C     4.6548231498    0.8779609661   -1.0199332408
     H     5.2646274842    1.0388491555   -0.1238805948
     H     4.6918752618    1.7757967114   -1.6478643241
     H     5.0596159053    0.0298328441   -1.5846182144
     C    -0.7072965147   -2.1206800217   -2.1849864228
     N    -0.3884123870   -1.3698839832   -1.3577816490
     C    -1.1071377183   -3.0567077943   -3.2179795527
     H    -0.2173290843   -3.5015107636   -3.6790044877
     H    -1.6889176912   -2.5340068292   -3.9863401319
     H    -1.7213215031   -3.8520469929   -2.7795976836
     C    -1.2178870430    2.8993143924   -0.5731640726
     N    -0.7288431864    1.8801227482   -0.3049835417
     C    -1.8281685802    4.1705212900   -0.9119778236
     H    -1.5702514146    4.4383906065   -1.9436351392
     H    -1.4632797136    4.9514608150   -0.2347499150
     H    -2.9183261866    4.0937328029   -0.8238113369
     C    -0.3014467590   -0.5482672589    1.9845952599
     N    -0.6447113942   -0.8348333693    3.0594940737
     C    -0.4346368613   -1.7598634928    5.3824314211
     C     0.9055262347   -2.1451896475    5.2140054793
     C     1.5660198449   -2.7466627998    6.2707619179
     C     0.8882020887   -2.9760220090    7.5305477443
     C    -0.4567001774   -2.5918713559    7.7021189150
     C    -1.1132487773   -1.9940296427    6.6496653690
     H     1.4185206455   -1.9771122993    4.2733944131
     H     2.6025862266   -3.0563798665    6.1719821978
     H    -0.9617005706   -2.7657101797    8.6471592378
     H    -2.1516776582   -1.6889893735    6.7571342253
     H     1.4330600823   -3.4502138221    8.3434323678
     C    -1.2750278313   -1.0956513188    4.3195692938
     H    -1.6494517886   -0.1334841874    4.7016779101
     H    -2.1637465817   -1.7144420530    4.1211825809
