19
-6.2085190690040622e+02 frame 47   xyz file generated by TeraChem
    Co     0.0743032708   -0.0606721497    0.1863076946
     C     3.2240489629    0.1522535599   -0.1787502601
     N     2.0690248968    0.1050754697   -0.0803902348
     C     4.6684185247    0.2109142643   -0.3016700640
     H     5.1216384820    0.2126786542    0.6966882859
     H     4.9601012910    1.1241042277   -0.8324744653
     H     5.0271885500   -0.6631915684   -0.8572354632
     C    -1.1776372120   -2.1471127254   -1.8932322361
     O    -0.7884824955   -1.3068070970   -1.0874389306
     H    -2.1236854694   -2.0008014007   -2.4315855556
     H    -0.5876765882   -3.0538139241   -2.0842078386
     C    -0.5153718392    2.9639816419   -0.5835700515
     O    -0.3020090112    1.8652522426   -0.0790684770
     H    -0.6937326849    3.8356512628    0.0597186679
     H    -0.5318070632    3.0919810847   -1.6745495064
     C    -1.3998570167   -1.0870007301    2.8127477106
     O    -0.7460329220   -0.8426292012    1.8018920655
     H    -2.3665518304   -0.5961036718    2.9892890898
     H    -1.0204625415   -1.8063600278    3.5503510287
