40
-1.5984283746721551e+03 frame 24   xyz file generated by TeraChem
    Cr     0.0974322587   -0.0265760187   -0.0028995542
     N     1.8651566202    0.2333988150    0.2625652696
     C     3.0616196648    0.4986294913    0.2556518685
     S     4.5875449178    0.8203308925    0.2643685878
     C    -1.7861174014   -3.2886787418   -3.0139031100
     C    -0.5667973124   -3.4859178407   -2.3429182402
     C    -0.1116113508   -2.4994201190   -1.4834175885
     N    -0.7982380597   -1.3472463599   -1.2671294845
     C    -1.9747490398   -1.1560266511   -1.9177382747
     C    -2.4984477501   -2.0956510414   -2.7893091112
     C    -2.2948441365   -4.2799653473   -3.9090428821
     H     0.0130125124   -4.3900921970   -2.4917122130
     H     0.8291177233   -2.6198008160   -0.9526206686
     H    -2.4976632315   -0.2237478669   -1.7298628149
     H    -3.4414817410   -1.9093033980   -3.2913377808
     N    -2.7118431282   -5.0852352216   -4.6367997586
     C    -1.4431398288    4.3221297236   -1.2591802750
     C    -0.9031359141    3.4392664517   -2.2122105299
     C    -0.5334355619    2.1676813770   -1.8093912882
     N    -0.6748404060    1.7415664384   -0.5278668658
     C    -1.1869953437    2.5951370383    0.3944602451
     C    -1.5833640479    3.8817761223    0.0688812069
     C    -1.8399817275    5.6429799576   -1.6340634007
     H    -0.7722222595    3.7437283991   -3.2447070318
     H    -0.1029693995    1.4645987548   -2.5164318697
     H    -1.2734054696    2.2258175722    1.4101959442
     H    -1.9915665032    4.5353913674    0.8318630883
     N    -2.1660574973    6.7164420807   -1.9395580914
     C    -1.6996320706   -1.1604603757    4.3034581321
     C    -2.5116919280   -1.1672374362    3.1546308600
     C    -1.9535262563   -0.8138650126    1.9385957271
     N    -0.6481871102   -0.4590657597    1.8112386265
     C     0.1375946386   -0.4524614429    2.9203472630
     C    -0.3500979915   -0.7934766154    4.1718364630
     C    -2.2396944432   -1.5194700100    5.5773364560
     H    -3.5580363325   -1.4458064914    3.2135073724
     H    -2.5575730428   -0.8176679099    1.0367827866
     H     1.1708313084   -0.1640569675    2.7765989871
     H     0.3102925925   -0.7753753093    5.0318639272
     N    -2.6821877026   -1.8104960057    6.6123756183
