11
-3.7528957317343480e+02 frame 34   xyz file generated by TeraChem
    Fe     0.1475638432    0.1236293408   -0.5435088945
     C     2.6798005639   -0.0204393603    0.6917863041
     O     2.0365061909   -0.1266943510   -0.3501195961
     H     2.1994611091    0.2053895545    1.6511228460
     H     3.7666313061   -0.1595239228    0.6539177457
     C    -0.7167935135   -1.9249275030   -2.2791999391
     O     0.1987319272   -1.1833365677   -1.9327317154
     H    -1.6923456501   -1.9094351110   -1.7796576101
     H    -0.5460186982   -2.6193944348   -3.1097827606
     I    -0.5212991701    2.3652676072   -1.6207812441
     I    -0.6069373781   -1.4405441538    1.4311412643
