45
-1.2663026127700780e+03 frame 41   xyz file generated by TeraChem
    Fe     0.1760985251   -0.1821087554   -0.2199014780
     C    -2.3882351384   -1.5166145730    3.1342387234
     C    -3.1478891192   -2.4997493556    2.5256852727
     C    -2.9460842452   -2.7993231104    1.1574823264
     C    -3.6858199279   -3.8008916489    0.4419506081
     C    -3.4444312079   -4.0426150196   -0.8790868274
     C    -2.4427585790   -3.3034246465   -1.5950020499
     C    -2.1437187363   -3.5055177632   -2.9632714835
     C    -1.1604533657   -2.7463316859   -3.5722597652
     C    -0.4724273098   -1.7831458517   -2.8173315386
     N    -0.7312793909   -1.5688759730   -1.5233260751
     C    -1.7004703590   -2.3120928029   -0.9132972299
     C    -1.9545363018   -2.0576250389    0.4754781384
     N    -1.2107343053   -1.0885656688    1.0851184446
     C    -1.4247742325   -0.8292202838    2.3790205132
     H    -2.5232712568   -1.2683835055    4.1811670755
     H    -3.8994838671   -3.0450382935    3.0897462968
     H    -4.4449600465   -4.3648559630    0.9750620613
     H    -4.0087836546   -4.8016569399   -1.4119205792
     H    -2.6894880796   -4.2569500874   -3.5270871767
     H    -0.9126636711   -2.8815879055   -4.6192643149
     H     0.3039328658   -1.1740909838   -3.2714475536
     H    -0.8153005534   -0.0530506546    2.8329063776
     C    -0.2735567219    4.1639099616   -0.9442390742
     C     1.0335162020    4.5965612839   -0.8107927224
     C     2.0572401849    3.6655584293   -0.5144071779
     C     3.4383184287    4.0258171334   -0.3579445738
     C     4.3816464900    3.0827996267   -0.0716168842
     C     4.0223671148    1.7010733840    0.0813877083
     C     4.9539313087    0.6774743610    0.3764938643
     C     4.5222679457   -0.6302822704    0.5061642750
     C     3.1587855676   -0.9197379902    0.3415107186
     N     2.2542144850    0.0240402094    0.0619061316
     C     2.6688813367    1.3190365239   -0.0675445290
     C     1.6760426766    2.3115262092   -0.3681240254
     N     0.3818023911    1.8958895061   -0.5012833938
     C    -0.5621559883    2.7999808329   -0.7819621038
     H    -1.0762266079    4.8568740504   -1.1709165367
     H     1.2822985059    5.6472072832   -0.9316366470
     H     3.7187668469    5.0682961430   -0.4725247090
     H     5.4236678292    3.3639596926    0.0453642944
     H     6.0042085825    0.9269043549    0.4991949160
     H     5.2156602016   -1.4329049117    0.7316942022
     H     2.7895387096   -1.9365832849    0.4361759350
     H    -1.5784173955    2.4298985381   -0.8795340355
