65
-1.9882367403430362e+03 frame 63   xyz file generated by TeraChem
    Cr     0.2924794669   -0.3161369991   -0.4070388045
     N    -1.0790645881   -1.2158514915   -1.6972067974
     N    -0.6013031070   -1.6924199378    0.8823365263
     C    -1.1677864976   -1.0214525929   -3.0261926538
     H    -0.5670622406   -0.2187245970   -3.4415362362
     C    -1.9663318301   -1.8059263215   -3.8488985266
     H    -1.9845239566   -1.6089152390   -4.9158336159
     C    -2.7191796734   -2.8446623073   -3.2918954607
     C    -2.6268146487   -3.0399120879   -1.9059209846
     H    -3.1643562599   -3.8586232050   -1.4503667326
     C    -2.4196996665   -3.2470089911    1.0901628811
     H    -3.2363155076   -3.7873973839    0.6342141921
     C    -2.2243836739   -3.3391588090    2.4761371979
     C    -1.1884882057   -2.5827795939    3.0336121766
     H    -0.9915481785   -2.6006816027    4.1005695113
     C    -0.4068514832   -1.7809866255    2.2113491481
     H     0.3935693133   -1.1774584576    2.6271031770
     C    -1.7984213989   -2.2289335416   -1.1361805704
     C    -1.6116009545   -2.4154034809    0.3208622155
     C    -3.1141014298   -4.2035373783    3.3317724462
     C    -3.5802862036   -3.7370782827   -4.1480412583
     C    -3.3020068099   -5.2394549728   -3.9194766646
     H    -4.6410926297   -3.5692010285   -3.9095442166
     H    -3.4549568518   -3.4814599990   -5.2057780533
     C    -4.6172039747   -3.9287908280    3.1038315514
     H    -2.8584089180   -4.0786048899    4.3895371111
     H    -2.9435759483   -5.2636568605    3.0921259605
     O    -5.0452084506   -3.3590515666    2.1311475310
     O    -5.4445369939   -4.4022138006    4.0465925370
     H    -4.9732541745   -4.8399902344    4.7763353909
     O    -2.7315152675   -5.6658278085   -2.9465298988
     O    -3.7732471225   -6.0681749761   -4.8621269282
     H    -4.2118908786   -5.5981338920   -5.5921518067
     N     2.1541628100    0.1012094964    0.4470207470
     N     0.6981544100    1.5485657625   -1.2612560504
     C     2.8945671031   -0.7328768596    1.2010315865
     H     2.4261387952   -1.6669960809    1.4937797272
     C     4.1990147670   -0.4457374560    1.5830598335
     H     4.7477675669   -1.1658256192    2.1813104171
     C     4.7851427029    0.7586260826    1.1810084696
     C     4.0105393756    1.6238626550    0.3950450636
     H     4.4480330904    2.5434310464    0.0355336634
     C     2.2097228604    3.4140961602   -1.2086530974
     H     3.1266034610    3.8569781961   -0.8488586603
     C     1.3402114371    4.1837107655   -1.9948056134
     C     0.1394855215    3.5904243558   -2.3972199571
     H    -0.5837304897    4.1348536999   -2.9956437991
     C    -0.1399641092    2.2842828276   -2.0154122368
     H    -1.0711298800    1.8102198031   -2.3082670069
     C     2.7142014741    1.2727813458    0.0304734127
     C     1.8662910581    2.1156232235   -0.8443825569
     C     1.6828801344    5.6010490932   -2.3747293317
     C     6.2006099037    1.1094522168    1.5603951460
     C     7.0672640431    1.5226920748    0.3500820710
     H     6.1965328058    1.9623396451    2.2554604975
     H     6.6665925433    0.2751172617    2.0958448485
     C     2.0944923822    6.4701517168   -1.1656741093
     H     0.8448331108    6.0626872471   -2.9081543336
     H     2.5340319155    5.6012724415   -3.0719450147
     O     2.4217503681    6.0117843729   -0.0995434133
     O     2.1079468653    7.7931762886   -1.3825116954
     H     1.8218184761    8.0306339480   -2.2814009045
     O     6.6066949711    1.8468725804   -0.7160237547
     O     8.3904166071    1.5413260780    0.5657264066
     H     8.6297000430    1.2575209482    1.4648687331
