15
-1.2185156473127092e+03 frame 51   xyz file generated by TeraChem
    Fe     0.0311832682   -0.0441053773   -0.0451567922
     N     1.8296745565    0.2556098269    0.2531655975
     C     3.0383865334    0.2869388238    0.2849586787
     S     4.6151896418    0.3452807461    0.3435543714
     N    -0.5749014905   -1.2754775404   -1.2748320808
     C    -0.7316611940   -2.1247056859   -2.1220743338
     S    -0.9589839981   -3.2305352416   -3.2252490628
     N    -0.7945541752    1.8581523080   -0.5985947258
     H    -1.7847348856    1.8177501841   -0.8497955294
     H    -0.6885784695    2.6006448299    0.0962396975
     H    -0.2996584674    2.1807749261   -1.4345259984
     N    -0.7946564988   -0.5966206636    1.8572977099
     H    -1.7851485331   -0.8465844808    1.8168559481
     H    -0.3008747519   -1.4332733145    2.1797717514
     H    -0.6877368228    0.0979706820    2.5998747533
