16
-8.0565666057941030e+02 frame 71   xyz file generated by TeraChem
    Co     0.5597815508   -0.1336582721   -0.2614938744
     S     2.3840482483   -1.7762583899   -0.2230363489
     C     2.5843572523   -0.2348248755    0.3577909559
     N     2.3567107565    0.8857933579    0.6891520734
     N    -0.7792200633   -1.1007787278   -1.3975113543
     H    -1.6489159363   -0.5972069453   -1.5797179330
     H    -0.3776903452   -1.3376555035   -2.3081337634
     H    -1.0364059489   -1.9893394069   -0.9636593238
     N    -0.1546144863    1.7485252670   -0.5733722559
     H    -1.1589556368    1.8929516402   -0.4601651431
     H     0.3190109442    2.3445311763    0.1093346384
     H     0.0977335889    2.1220475757   -1.4915439108
     N    -0.2371657051   -0.4182327347    1.7419017313
     H    -1.2397041528   -0.3375453868    1.9153590217
     H     0.0443418817   -1.3335898908    2.0982199446
     H     0.2224299472    0.2649946372    2.3470501820
