47
-1.0418177447649919e+03 frame 79   xyz file generated by TeraChem
    Fe     0.6396192290   -0.7727364723   -0.9245939383
     C     2.2311783759    0.1297703473   -0.1629111579
     N     3.1716030951    0.6284515730    0.3036495496
     C     5.2440267611    2.0009702645    0.0396557488
     C     6.2569666054    1.3572628303   -0.6846122162
     C     7.1593495424    2.1043680248   -1.4861837111
     C     7.0570030466    3.4921076275   -1.5541940172
     C     6.0579341938    4.1398318615   -0.8259133582
     C     5.1506029831    3.3933443877   -0.0261960318
     H     6.3817400699    0.2790712767   -0.6213408252
     H     7.9404349342    1.5825252907   -2.0304441772
     H     5.9733461684    5.2219811058   -0.8513137681
     H     4.4021793950    3.9272013182    0.5539482178
     H     7.7558455804    4.0654025399   -2.1545813553
     C     4.3347954848    1.2118918878    0.9647567939
     H     3.9367563895    1.8408056902    1.7673683610
     H     4.8648099015    0.3728946901    1.4273718270
     C    -0.9065297202   -1.7316800094   -1.7260997164
     N    -1.7588910737   -2.3301064880   -2.2435817541
     C    -4.1329313338   -3.1120670479   -2.4726884561
     C    -4.5602958619   -2.4079787124   -1.3526746766
     C    -5.9047143392   -2.4737457221   -0.9745596989
     C    -6.8323194684   -3.2510404949   -1.7232475046
     C    -6.4032466189   -3.9587071526   -2.8479565871
     C    -5.0674903126   -3.8945641434   -3.2244368011
     H    -3.8695362459   -1.8085492521   -0.7685281204
     H    -6.2510173809   -1.9280271973   -0.1022483547
     H    -7.1029732777   -4.5542718601   -3.4249242015
     H    -4.7281102842   -4.4450514846   -4.0986364595
     H    -7.8718025503   -3.2880670590   -1.4119688674
     C    -2.7055490922   -3.1239762113   -2.9888486595
     H    -2.6699811862   -2.7573969036   -4.0231443774
     H    -2.3088524685   -4.1479962746   -2.9967818116
     C    -0.6663954964    1.6791685431   -2.0196651519
     N     0.4481227130    0.7143807499   -2.3186574200
     H     1.3179589510    1.2427737068   -2.4105374473
     H     0.2898101901    0.3079600020   -3.2444871100
     H    -0.4952097780    2.1317455495   -1.0407156522
     H    -1.6151854697    1.1405329739   -2.0127258141
     H    -0.7040930241    2.4657713975   -2.7773806148
     C     0.0633314253   -1.7799888589    1.8160087030
     N     0.7729977454   -2.1826357395    0.5504607355
     H     0.3929858455   -3.0795380045    0.2390338409
     H     1.7498922028   -2.3834205915    0.7812249767
     H    -0.9943425755   -1.6165890048    1.5995512999
     H     0.5053572844   -0.8578546991    2.1973373137
     H     0.1565890126   -2.5632729827    2.5726491940
