9
-1.3053790379546820e+03 frame 20   xyz file generated by TeraChem
    Fe     0.3852844888   -0.3223407406   -0.2139337879
     N     2.2507880137   -0.0332773631   -0.4821558946
     C     3.3777124614    0.3450758963   -0.4694988614
     S     4.9245767575    0.8255723869   -0.4831808032
     N    -0.7174553328   -1.5343798107   -1.1828670823
     C    -1.6374202334   -2.1514490656   -1.6145591573
     S    -2.8565453364   -3.0202813767   -2.2326415466
     F    -0.3530862927    1.2025569462   -0.4860483504
     F     0.1337103448   -0.6186270576    1.4630076558
