38
-2.5034454218736587e+03 frame 67   xyz file generated by TeraChem
    Mn    -0.1009653420   -0.0749253971    0.1273481103
     C     4.7258219461   -0.7132294936   -0.2531510965
     C     4.1371478340    0.4349492396   -0.8107535443
     C     2.7680317288    0.6146857022   -0.7014237279
     N     1.9520822356   -0.2669001231   -0.0840875823
     C     2.5198296983   -1.3700611375    0.4593648908
     C     3.8779382623   -1.6269591255    0.3977973456
     S     6.4481174650   -1.0697115114   -0.3170715479
     H     4.7320741582    1.1859896886   -1.3199188083
     H     2.2928720047    1.5003176762   -1.1125819694
     H     1.8468848590   -2.0514154635    0.9717049653
     H     4.2712979026   -2.5272920496    0.8581879542
     H     6.8192371618    0.0424139476   -0.9837295666
     C    -1.8082463560   -2.5882857714   -3.6864358434
     C    -0.6720113776   -1.7720663778   -3.8253679718
     C    -0.2186886750   -1.0523836542   -2.7326009580
     N    -0.8167808528   -1.0863019712   -1.5215641350
     C    -1.9082333143   -1.8772999270   -1.3849992321
     C    -2.4272243688   -2.6286268289   -2.4252575275
     S    -2.4929744876   -3.5558628374   -4.9876783324
     H    -0.1399739059   -1.6967619485   -4.7679930107
     H     0.6628433385   -0.4237536429   -2.8174958914
     H    -2.3556132801   -1.9008727891   -0.3969563453
     H    -3.3035134010   -3.2438946368   -2.2495453482
     H    -1.5919350715   -3.2176036198   -5.9324928636
     C    -1.1444158329    4.6530094645   -0.5062246036
     C    -1.5493903125    3.7124283378   -1.4686971814
     C    -1.1758754169    2.3869617538   -1.3206019498
     N    -0.4244714809    1.9388546881   -0.2913963487
     C    -0.0345481444    2.8466882551    0.6351532992
     C    -0.3656083508    4.1876042696    0.5691151992
     S    -1.5521329570    6.3631835316   -0.5644523320
     H    -2.1538268186    4.0003683088   -2.3224338462
     H    -1.4847189720    1.6418334412   -2.0465905623
     H     0.5577443547    2.4681001793    1.4637767492
     H    -0.0269445279    4.8610537364    1.3495347595
     H    -2.2754185607    6.3179475772   -1.7018147116
    Cl    -1.0143604765   -1.0440755897    1.9429422031
