25
-8.6568164062834035e+02 frame 67   xyz file generated by TeraChem
    Ni     1.0362528672   -1.0257781251   -1.0716925741
     C     5.5430389794    0.4392273169   -1.0655442393
     C     4.5043399938    1.3393435366   -1.3014434821
     C     3.1930491604    0.8750614453   -1.2957176070
     N     2.9014130391   -0.4193819996   -1.0707901279
     C     3.8976691414   -1.2954260105   -0.8443952482
     C     5.2312187862   -0.8999945199   -0.8331909110
     H     6.5765395630    0.7749259081   -1.0632386150
     H     4.6993973579    2.3905881261   -1.4876237797
     H     2.3271712706    1.5024928779   -1.4674873048
     H     3.5653511669   -2.3123232356   -0.6759325411
     H     6.0062023794   -1.6361121773   -0.6452729850
     C    -3.4705307135   -2.4906937737   -1.0777290566
     C    -2.4317696541   -3.3909518139   -0.8426368136
     C    -1.1204872126   -2.9266789904   -0.8485093279
     N    -0.8288411297   -1.6321294818   -1.0729008896
     C    -1.8251460515   -0.7559470585   -1.2985092310
     C    -3.1587128906   -1.1513708309   -1.3094668549
     H    -4.5040424014   -2.8263591902   -1.0798770908
     H    -2.6267752280   -4.4422913497   -0.6569477551
     H    -0.2546064553   -3.5542290213   -0.6772097109
     H    -1.4929249579    0.2610367259   -1.4666252671
     H    -3.9337173785   -0.4151091493   -1.4967381369
     F     0.4854038703    0.6674282445   -1.3316140910
     F     1.5871752265   -2.7190488475   -0.8118215878
