38
-2.1251532058614912e+03 frame 40   xyz file generated by TeraChem
    Cr    -0.0517643826    0.1049554842   -0.2993782321
     C     4.5690141307    0.3802228131    0.8435327673
     C     3.7618697076    1.5320827373    0.7048318962
     C     2.4549099206    1.4042831723    0.2872212743
     N     1.8945981926    0.2006179553   -0.0211328285
     C     2.6664691204   -0.9163342663    0.1151149945
     C     3.9761402859   -0.8668829080    0.5331898144
     S     6.2261532708    0.3925212255    1.3729508212
     H     4.1459344584    2.5215151937    0.9288395223
     H     1.8186858311    2.2789549283    0.1933929928
     H     2.1911008505   -1.8627429955   -0.1184937484
     H     4.5374835488   -1.7907689141    0.6273652303
     H     6.3363570301    1.7258329418    1.5477239833
     C    -0.8673550067   -3.4556347362   -3.4186262369
     C     0.3192088526   -2.6961584013   -3.5414951821
     C     0.5805009854   -1.6853613594   -2.6413341244
     N    -0.2673320373   -1.3699972223   -1.6239981303
     C    -1.4163089949   -2.0972406537   -1.5009530023
     C    -1.7404397496   -3.1258876697   -2.3561358493
     S    -1.3178689764   -4.7612958229   -4.4780085726
     H     1.0361369456   -2.8945784284   -4.3312261016
     H     1.4901294614   -1.0977880333   -2.7193823706
     H    -2.0697108019   -1.8398930576   -0.6718060108
     H    -2.6638157851   -3.6738772478   -2.1996047774
     H    -0.2374818952   -4.7030020006   -5.2841351887
     C    -2.0946842713    4.2538714493   -1.6029658856
     C    -1.1743958533    3.6087603669   -2.4611837816
     C    -0.5788022438    2.4331246359   -2.0590952373
     N    -0.8361094536    1.8499241120   -0.8571688143
     C    -1.7241541812    2.4647336303   -0.0210691298
     C    -2.3543503950    3.6426630075   -0.3552041501
     S    -2.9215806426    5.7391145523   -1.9817260773
     H    -0.9257500877    4.0178735878   -3.4346022933
     H     0.1291465546    1.9252100552   -2.7082856237
     H    -1.9096270521    1.9759944105    0.9288329139
     H    -3.0492810140    4.0862142714    0.3505211104
     H    -2.3849060420    5.9208642995   -3.2061387836
     F    -0.8030979097   -0.1226668095    1.2249515408
