37
-8.1079059379309933e+02 frame 58   xyz file generated by TeraChem
    Fe    -0.0718829569    0.0953932031    0.1727050201
     C     2.9331208327   -0.6965135333   -0.2263695738
     N     2.0155681183    0.3388132060    0.3818950730
     H     2.2580528736    1.2577071255   -0.0089271522
     H     2.2297654324    0.4253703481    1.3836569050
     H     2.8090102697   -0.7006454804   -1.3107443967
     H     2.7064905800   -1.6799050211    0.1906611303
     H     3.9725596438   -0.4452769470    0.0073492597
     C    -1.9114100510   -1.6610673071   -1.5342359770
     N    -0.4473097314   -1.3837470237   -1.2640270874
     H     0.0160738948   -1.1624098347   -2.1541379013
     H    -0.0074022055   -2.2610834097   -0.9599216665
     H    -2.3990427668   -0.7509569145   -1.8888106747
     H    -2.3854447599   -2.0115389645   -0.6163800460
     H    -1.9982483260   -2.4356778700   -2.3023389037
     C    -1.4815120018    4.4670158633   -1.0932410335
     C    -1.3484205297    3.4672084544   -2.0687431581
     C    -0.9539582788    2.1979939996   -1.6806193573
     N    -0.6931112450    1.8951964205   -0.3732566149
     C    -0.8231846696    2.8708646126    0.5777492967
     C    -1.2111683939    4.1586512063    0.2485735445
     H    -1.7895479060    5.4709342513   -1.3747736120
     H    -1.5469937021    3.6704971996   -3.1167880846
     H    -0.8368524746    1.4055910713   -2.4139683109
     H    -0.6112117876    2.5975761497    1.6083111421
     H    -1.3013355492    4.9077282240    1.0294675563
     C    -1.8557246229   -1.5862686826    4.2624314332
     C    -2.5993393922   -0.6904703771    3.4796580701
     C    -2.0497696704   -0.2062424381    2.3044704775
     N    -0.8023474932   -0.5827250141    1.8871219504
     C    -0.0809069578   -1.4599171208    2.6498942158
     C    -0.5767731283   -1.9749703073    3.8349785150
     H    -2.2662084580   -1.9771057926    5.1901744351
     H    -3.5933671294   -0.3710247259    3.7777813170
     H    -2.5955641349    0.4899572299    1.6743891993
     H     0.9027943094   -1.7468049622    2.2885136216
     H     0.0258132624   -2.6689262970    4.4132594144
