19
-1.3927653018247579e+03 frame 51   xyz file generated by TeraChem
    Co    -0.0270125888    0.1030518969   -0.2660015424
     S     2.2425142015    0.6080355333   -0.5737120844
     C     2.1689975494    2.2491332726   -0.1708109379
     N     2.1012767421    3.3898941202    0.0871186831
     S    -0.7517419624   -1.5134003297   -1.8191727864
     C    -1.0341172076   -2.7906119021   -0.7491302342
     N    -1.2419689572   -3.6675794222   -0.0009219592
     C    -0.9544379292    3.0955017683   -0.5466995607
     N    -0.9451656710    1.9390802633   -0.4987319193
     C    -0.9089524287    4.5472067045   -0.5961153806
     H    -1.1465991251    4.8960816543   -1.6056090594
     H     0.1130356137    4.8443797278   -0.3320623333
     H    -1.6221762033    4.9752643816    0.1145439748
     C    -0.9631540931   -1.5287891707    2.2430148572
     N    -0.6333442961   -0.6712927293    1.5387117698
     C    -1.3780308592   -2.6380713508    3.0845848494
     H    -1.4662027020   -3.5156296579    2.4326045713
     H    -2.3457356728   -2.4203177402    3.5464746236
     H    -0.6334208305   -2.8202964180    3.8653374466
