48
-1.3923237680487853e+03 frame 57   xyz file generated by TeraChem
    Fe     0.1061217889    0.0035989328    0.2613687977
     C     4.7208697338    0.8525075959   -0.4496085770
     C     3.9139831040    0.6195626587   -1.5846416544
     C     2.5639249325    0.3710335271   -1.4156308078
     N     1.9850663339    0.3505258654   -0.1832321161
     C     2.7609028770    0.5790568388    0.9150228507
     C     4.1194870993    0.8276190375    0.8247116870
     C     6.1154343304    1.1075039738   -0.5911168060
     H     4.3428657609    0.6328209517   -2.5816207539
     H     1.9158999630    0.1855253764   -2.2647109572
     H     2.2713936776    0.5563491546    1.8873406869
     H     4.7035916120    0.9991161601    1.7230856406
     N     7.2550528223    1.3151955822   -0.7083627598
     C    -0.6137042660   -3.4406884958   -2.8433272435
     C     0.4674220836   -3.4585668287   -1.9372131172
     C     0.6364403974   -2.3945930084   -1.0699525512
     N    -0.2230838834   -1.3361316840   -1.0549313362
     C    -1.2656650189   -1.3072086663   -1.9258360605
     C    -1.4856640943   -2.3345169255   -2.8285499695
     C    -0.8147854210   -4.5158223495   -3.7564526881
     H     1.1678577213   -4.2875210862   -1.9171923130
     H     1.4686795636   -2.3714772453   -0.3730950725
     H    -1.9188429172   -0.4451060077   -1.8940586382
     H    -2.3262562877   -2.2775199988   -3.5128964817
     N    -0.9790272012   -5.3948074128   -4.5018521004
     C    -2.3048422869    3.8431371908   -0.9819060311
     C    -0.8992648931    3.8015912189   -1.0475798212
     C    -0.2381367066    2.6394656936   -0.6872383717
     N    -0.9098348751    1.5349841010   -0.2544076750
     C    -2.2714025350    1.5662108034   -0.1862065857
     C    -2.9918669221    2.6916522847   -0.5407493220
     C    -3.0194359702    5.0180907283   -1.3534473851
     H    -0.3289483256    4.6631041916   -1.3801341274
     H     0.8412861900    2.5761865066   -0.7389586709
     H    -2.7696859570    0.6739174141    0.1739877132
     H    -4.0750942019    2.6817785582   -0.4709592981
     N    -3.6044501231    5.9779434247   -1.6566305286
     C    -1.9715156266   -1.3398497168    4.2581267644
     C    -1.7143132095    0.0133960349    4.0034946064
     C    -1.2052335306    0.3812315254    2.7680686941
     N    -0.9298768923   -0.5422326122    1.8001470395
     C    -1.1830049085   -1.8590194825    2.0484949165
     C    -1.7020324755   -2.2852341611    3.2615288183
     H    -2.3805993245   -1.6508611900    5.2156494271
     H    -1.9122662027    0.7767277470    4.7494787642
     H    -1.0129990516    1.4226061333    2.5294579027
     H    -0.9705709878   -2.5606815591    1.2499584635
     H    -1.8955167423   -3.3417481049    3.4183641035
