38
-2.5211243024016931e+03 frame 37   xyz file generated by TeraChem
    Mn    -0.2096623652    0.1469749868    0.3968408819
     C     2.5201765133   -2.7619707091   -0.1601354963
     C     3.2860026518   -1.6697102646    0.2819810488
     P     2.5491444932    0.0158014514    0.1025350236
     C     3.4890197691    1.0435375140    1.3155729829
     C     2.9529134706    1.1643849380    2.6085595374
     C     3.6174676731    1.9211879086    3.5748143515
     C     4.8115745171    2.5733616919    3.2625535262
     C     5.3426174277    2.4688347697    1.9753738841
     C     4.6851410313    1.7090626247    1.0061671530
     C     3.1656476992    0.5963569848   -1.5401426006
     C     2.4951317744    1.6771473599   -2.1382090452
     C     2.9176409711    2.1659059966   -3.3752534615
     C     3.9993058810    1.5789991001   -4.0351399248
     C     4.6597686373    0.4956515209   -3.4535420205
     C     4.2455645656    0.0055969271   -2.2134965359
     C     4.5519216122   -1.9047816670    0.8405691280
     C     5.0503138800   -3.2047882408    0.9420016005
     C     4.2894978227   -4.2842195419    0.4890043767
     C     3.0258036105   -4.0592452765   -0.0601760093
     H     1.5258001728   -2.5961311208   -0.5700872648
     H     2.0075600599    0.6829088121    2.8512792739
     H     3.1884131911    2.0108195383    4.5694684504
     H     5.3215853566    3.1699512693    4.0155616311
     H     6.2669520856    2.9831323931    1.7220150523
     H     5.0987944083    1.6389736283    0.0043487820
     H     1.6355761998    2.1232180960   -1.6415741069
     H     2.3880931028    3.0001249626   -3.8281683835
     H     4.3200375369    1.9570635219   -5.0032199646
     H     5.4960596003    0.0255002060   -3.9660178109
     H     4.7603729113   -0.8435067721   -1.7738010964
     H     5.1455015912   -1.0712998725    1.2048410117
     H     6.0312281318   -3.3729345226    1.3808423815
     H     4.6766327405   -5.2971733882    0.5726526349
     H     2.4213169795   -4.8952612765   -0.4024798561
    Cl    -0.8632168429   -1.4643274502   -1.2045090930
    Cl    -0.5404011465    2.4504208488   -0.0663732966
    Cl    -0.5109732806   -0.3119577813    2.7019152813
