38
-2.2084878831215610e+03 frame 68   xyz file generated by TeraChem
    Ni    -0.2499618659    0.3694453800   -1.0761268389
     C     4.4528351674   -0.1505282496   -0.0942539597
     C     4.0960991436    0.3069317680   -1.3741199764
     C     2.7546920405    0.4686879915   -1.6826939538
     N     1.7668701974    0.2054797427   -0.8085530294
     C     2.1003925387   -0.2335633258    0.4259181133
     C     3.4158035918   -0.4218645893    0.8147441419
     S     6.1156864333   -0.4010218582    0.4329990060
     H     4.8456083427    0.5359878580   -2.1243275456
     H     2.4584598600    0.8202006801   -2.6674327104
     H     1.2563239513   -0.4229751673    1.0823182767
     H     3.6284842527   -0.7764282372    1.8180058018
     H     6.7095174979   -0.0234360793   -0.7174475601
     C    -1.3539320119   -3.9193005066   -3.0411114912
     C    -0.8676885551   -2.8989272396   -3.8768212391
     C    -0.5453439010   -1.6715699030   -3.3228385592
     N    -0.6782998342   -1.3994679543   -2.0091423017
     C    -1.1447243837   -2.3781102809   -1.1995725729
     C    -1.4874902502   -3.6331916004   -1.6716509836
     S    -1.8011341172   -5.5254787685   -3.6087696952
     H    -0.7407070631   -3.0515353543   -4.9433617829
     H    -0.1691865115   -0.8711637534   -3.9544528874
     H    -1.2299889624   -2.0976349966   -0.1548480696
     H    -1.8584281419   -4.3798935121   -0.9772002540
     H    -1.5252356210   -5.3189200910   -4.9125721618
     C    -1.2877520816    4.9966990816   -0.0808157990
     C    -0.7770979039    4.6826519084   -1.3523708565
     C    -0.4620980949    3.3665600253   -1.6454473576
     N    -0.6238922196    2.3576763269   -0.7654646136
     C    -1.1139756203    2.6544674665    0.4609581128
     C    -1.4517208789    3.9433432706    0.8348814268
     S    -1.7287818051    6.6239161946    0.4277955631
     H    -0.6258024169    5.4466275669   -2.1076060620
     H    -0.0667317531    3.1064585452   -2.6236318917
     H    -1.2190120214    1.7996153796    1.1212577450
     H    -1.8413523600    4.1229883189    1.8315465241
     H    -1.4289372167    7.2443453823   -0.7315636642
     F    -0.7939639736   -0.1759203101    0.6225308583
