53
-1.3837667939262587e+03 frame 122   xyz file generated by TeraChem
    Cr     0.0018935984   -0.0080976056    0.0117732362
     C     1.8385028481   -0.9303878801    0.3796436637
     N     2.8655019770   -1.4447761763    0.5854746871
     C     4.0834583659   -2.0535827639    0.8307673166
     C     4.4217221712   -2.3926087148    2.1511876575
     C     5.6487742034   -3.0024450322    2.3859535317
     C     6.5192245416   -3.2649169844    1.3222596290
     C     6.1681965143   -2.9208613574    0.0121177937
     C     4.9454976145   -2.3124670367   -0.2475735696
     H     3.7327404150   -2.1812892195    2.9620079148
     H     5.9277457719   -3.2735472506    3.3988642356
     H     6.8489469194   -3.1272882827   -0.8071764503
     H     4.6553991553   -2.0376349096   -1.2561109735
     H     7.4758497170   -3.7402657321    1.5152246843
     C     0.2761414941   -0.3067241053   -2.0337089085
     N     0.4266343590   -0.4706013905   -3.1780926526
     C     0.6031274396   -0.6625281813   -4.5410485024
     C     0.2380390466   -1.8937827105   -5.1070702501
     C     0.4154595550   -2.0720239534   -6.4751868763
     C     0.9471229201   -1.0410967870   -7.2571253238
     C     1.3071270949    0.1794451310   -6.6760032393
     C     1.1384252017    0.3822387280   -5.3102736246
     H    -0.1727728947   -2.6814199491   -4.4842259886
     H     0.1383322931   -3.0165151107   -6.9319164907
     H     1.7194770792    0.9749805552   -7.2880202208
     H     1.4114204843    1.3219742901   -4.8417742745
     H     1.0819768163   -1.1897874050   -8.3238735116
     C    -1.8344720395    0.9158486994   -0.3533314840
     N    -2.8622411406    1.4303514779   -0.5551852894
     C    -4.0818576892    2.0395794294   -0.7911896439
     C    -4.5968532038    2.0509139485   -2.0979374867
     C    -5.8245580583    2.6635562049   -2.3215332318
     C    -6.5209238714    3.2529008270   -1.2605283797
     C    -5.9942494640    3.2344883104    0.0358383916
     C    -4.7688553395    2.6268965508    0.2839995208
     H    -4.0416884707    1.5880029411   -2.9068282380
     H    -6.2399799794    2.6819040453   -3.3237176665
     H    -6.5402403338    3.6945623075    0.8528750010
     H    -4.3430388030    2.6027215471    1.2814398625
     H    -7.4788124439    3.7292611111   -1.4445093016
     C    -0.2753994099    0.2915135228    2.0564718129
     N    -0.4321214234    0.4586001460    3.1995986384
     C    -0.6198481216    0.6573083161    4.5600563673
     C    -1.5547558917   -0.1385040465    5.2400614261
     C    -1.7344997782    0.0699869298    6.6035081012
     C    -0.9955802440    1.0535853887    7.2695239225
     C    -0.0678870530    1.8380727549    6.5759394892
     C     0.1306678367    1.6476728697    5.2124323973
     H    -2.1168472910   -0.8974922570    4.7061651885
     H    -2.4516784969   -0.5358772840    7.1476187815
     H     0.5015995378    2.5996889786    7.0985192253
     H     0.8446059322    2.2466222647    4.6569301177
     H    -1.1429970882    1.2091426326    8.3336254073
