11
-1.4212291162773131e+03 frame 46   xyz file generated by TeraChem
    Fe    -0.3980400092   -0.1604007608    0.0994613887
     F     0.7714831046   -1.3357810454    0.5955058442
     S    -0.6382988221   -1.1920731941   -2.0975685370
     H     0.0043314478   -2.3161534479   -1.7096379652
     H     0.4610541923   -0.6708395389   -2.6881085480
     S    -0.8944155276    2.1923854520   -0.3755686114
     H    -1.1747094818    2.2904547824   -1.6929558198
     H    -2.1791422314    2.3548862990    0.0090726625
     S    -1.4904753032   -0.2553834273    2.2878741594
     H    -0.8722189421   -1.4136822078    2.6076795231
     H    -0.6033863308    0.5023334971    2.9717244283
