21
-6.3602537082788899e+02 frame 42   xyz file generated by TeraChem
    Co    -1.1807352746   -0.1115995147   -0.1135298736
     C     0.7996313133   -0.0567534306   -0.0630019360
     N     1.9658446006   -0.0191193730   -0.0299495327
     C    -1.1884192618   -2.3745959856   -2.3745608840
     N    -1.3797423442   -1.5669978945   -1.5674148728
     C    -0.9379004288   -3.3868916650   -3.3863608901
     H     0.1424571115   -3.5171288384   -3.5095266798
     H    -1.3761865792   -3.0749824381   -4.3398368495
     H    -1.3847112568   -4.3377706295   -3.0786390343
     C    -1.4224025309    3.0277885591   -0.7072573479
     N    -1.5182204656    1.8947226883   -0.4910203137
     C    -1.2931777570    4.4499628875   -0.9778047957
     H    -1.3653103372    4.6272557789   -2.0558147557
     H    -0.3196374052    4.8014363570   -0.6204515913
     H    -2.0893328919    5.0016442757   -0.4679753811
     C    -1.4234241102   -0.7094878477    3.0256538444
     N    -1.5164009029   -0.4887645284    1.8932147266
     C    -1.2984173299   -0.9861329397    4.4470627433
     H    -2.2818075883   -0.9485934719    4.9259627108
     H    -0.6400534842   -0.2419558580    4.9071511010
     H    -0.8639556493   -1.9813236647    4.5879264597
