15
-6.7130935598278597e+02 frame 18   xyz file generated by TeraChem
    Fe     0.1264918036   -0.0250239708    0.0205822391
     C     4.7846761205   -0.0651589465   -0.0108548179
     C     4.0769340976    0.8094346823   -0.8425618978
     C     2.6845442307    0.8049227719   -0.8045742026
     N     2.0099195355   -0.0378484731    0.0109782581
     C     2.6809700269   -0.8717776464    0.8383027741
     C     4.0732834065   -0.9128377602    0.8452613046
     H     5.8736159793   -0.0817028041   -0.0253306996
     H     4.5902148234    1.4958404678   -1.5126701825
     H     2.0725008397    1.4754471878   -1.4010066876
     H     2.0666271821   -1.4813591665    1.4948556689
     H     4.5836343590   -1.5979987603    1.5188650941
     F    -0.3203285373   -1.2255792297   -1.1761345682
     F    -0.0665238063    1.6817963180   -0.2292838951
     F    -0.0731231670   -0.2786399404    1.7248127073
