9
-5.5654732997597273e+02 frame 40   xyz file generated by TeraChem
    Mn     0.0006079064    0.0050962536   -0.0263412061
     C     2.2514769509    0.3586548724    0.3235745589
     O     3.3467995391    0.5331151920    0.4962974782
     C    -0.3038087913   -1.4398196811   -1.7937189463
     O    -0.4551174659   -2.1491477492   -2.6505643672
     C    -1.0237053040    2.0337270127   -0.3996267387
     O    -1.5155753540    3.0268475023   -0.5785740710
     C    -0.9269080110   -0.9526038527    1.8546278295
     O    -1.3738919274   -1.4159117744    2.7743000508
