35
-8.7957915068316845e+02 frame 32   xyz file generated by TeraChem
    Fe     0.6271523536    0.5977137113   -0.1973770995
     C     4.9187228702   -1.4905782706   -0.5293272956
     C     4.7418216818   -0.1111981912   -0.6408768970
     C     3.4540184542    0.4032744918   -0.5540719944
     N     2.3651404186   -0.3743591286   -0.3697321594
     C     2.5426663892   -1.7075063893   -0.2562390041
     C     3.7980557671   -2.2986708428   -0.3346784559
     H     5.9114316730   -1.9264593254   -0.5862608125
     H     5.5818473543    0.5595749954   -0.7847703763
     H     3.2787871894    1.4753114747   -0.6210806293
     H     1.6464446018   -2.2900954507   -0.0819414080
     H     3.8897113245   -3.3746892101   -0.2331424378
     C    -1.7261778005   -2.1071113334   -3.2912903498
     C    -0.4366494592   -1.6622612045   -3.5851419440
     C     0.2348739636   -0.8834520751   -2.6500674302
     N    -0.3209681972   -0.5289980363   -1.4704591889
     C    -1.5736123539   -0.9529982129   -1.1894682111
     C    -2.2987536663   -1.7454442504   -2.0718660452
     H    -2.2723059368   -2.7241256999   -3.9981417476
     H     0.0511986013   -1.9164593211   -4.5200199049
     H     1.2455841498   -0.5329945288   -2.8320848353
     H    -1.9769474963   -0.6484513562   -0.2312393061
     H    -3.2968054802   -2.0699068685   -1.7977323828
     C    -2.3683537296    4.3531349485   -0.3255630493
     C    -2.0587545608    3.6296645538   -1.4777474322
     C    -1.2612753965    2.4983710356   -1.3645498024
     N    -0.7619713425    2.0627906135   -0.1835713766
     C    -1.0672337904    2.7709247903    0.9288169745
     C    -1.8620635330    3.9113466344    0.8955126618
     H    -2.9923452293    5.2399473842   -0.3796585485
     H    -2.4304400182    3.9292851655   -2.4517919692
     H    -1.0128422421    1.9061879388   -2.2390302727
     H    -0.6662031913    2.3862985186    1.8587678638
     H    -2.0765709578    4.4363425693    1.8201221914
     I     0.1474712433   -0.4197971433    2.1450303536
