31
-1.5650853064277369e+03 frame 139   xyz file generated by TeraChem
    Cr     0.1719736557   -0.2948608677    0.4328189369
     C     4.2127477243    1.2262310370   -1.8533944055
     C     3.0467972748    2.0291146452   -1.7957482212
     C     1.9345601468    1.5298581851   -1.1373650995
     N     1.9136947708    0.2944617470   -0.5583311328
     C     3.0349900249   -0.4728247383   -0.6104734707
     C     4.1969315176   -0.0546604824   -1.2430295708
     C     5.3806247822    1.6956749697   -2.5025371800
     H     3.0202454971    3.0143910589   -2.2513022766
     H     1.0328788527    2.1332790104   -1.0693235782
     H     2.9932667018   -1.4476734150   -0.1349093719
     H     5.0713462278   -0.6979340620   -1.2686507066
     N     6.3504692278    2.0823784143   -3.0454398949
     C    -1.1717628421   -4.0165800992   -2.4286039284
     C    -0.7197102015   -4.2429526761   -1.1050843544
     C    -0.3413091022   -3.1499213527   -0.3422622832
     N    -0.3728105820   -1.8718171792   -0.8179634367
     C    -0.8104106747   -1.6558354709   -2.0881239094
     C    -1.2138568514   -2.6873483844   -2.9233941329
     C    -1.5837732954   -5.0981454170   -3.2448962564
     H    -0.6723866917   -5.2456812851   -0.6911518687
     H    -0.0015304631   -3.2914220710    0.6798203059
     H    -0.8342969747   -0.6302777773   -2.4447628098
     H    -1.5523956643   -2.4771132546   -3.9334543303
     N    -1.9228444561   -5.9959664587   -3.9258737931
     S     0.8769571391    1.4297089074    2.2331682883
     H     2.0466311248    0.9233637149    2.6854091492
     H     0.1981062704    1.1530952423    3.3693341724
     S    -2.1025267990   -0.6780972585    1.6024764817
     H    -2.9925164763   -0.4741988060    0.6048984126
     H    -2.4203417971    0.4609119376    2.2580428385
