23
-6.3512069759053020e+02 frame 24   xyz file generated by TeraChem
    Fe     0.2011748582   -0.1181496089    0.2529455238
     C     3.1422555492    0.4023327589   -0.2930090114
     N     1.9907972481    0.2212602700   -0.1356179652
     C     4.5532674249    0.6162942249   -0.4624468810
     H     5.0531654732    0.6084425053    0.5231818222
     H     4.7294587438    1.5916861253   -0.9508767966
     H     4.9816896065   -0.1858256885   -1.0904533144
     C    -0.6395630310   -1.9622188922   -1.9711949927
     N    -0.3515365708   -1.2534717736   -1.0825130409
     C    -0.9986679008   -2.8581186811   -3.0416647077
     H    -0.0859661716   -3.2585524735   -3.5164304697
     H    -1.5942158497   -2.3167740709   -3.7978749749
     H    -1.5966185416   -3.6963057174   -2.6429436526
     C    -1.1318181262    2.5206104022   -0.3066399550
     N    -0.6571803981    1.4759266335   -0.0628914597
     C    -1.7214891620    3.8079469380   -0.5737390943
     H    -1.3448108316    4.1968848980   -1.5362703904
     H    -1.4535504105    4.5150461190    0.2314027798
     H    -2.8204955305    3.7156236603   -0.6239559345
     C    -1.5744224507   -1.1635763510    2.5174312607
     O    -0.6282125375   -0.8329225063    1.7803360016
     H    -1.3347259578   -1.5958686536    3.5056131537
     H    -2.6225985264   -1.0336956761    2.1990734941
