38
-2.4855337273970613e+03 frame 59   xyz file generated by TeraChem
    Cr    -0.1481175305   -0.1254714064    0.1360262997
     C     4.5856715692   -0.7892242248   -0.0546330626
     C     4.0716830623    0.5191066260   -0.1956225396
     C     2.7080342857    0.7191838270   -0.2457769910
     N     1.8148752535   -0.3032007436   -0.1752272066
     C     2.3016511452   -1.5704935901   -0.0476021766
     C     3.6488893971   -1.8471732638    0.0156558156
     S     6.2790466662   -1.1835772405    0.0406185417
     H     4.7284201872    1.3803160371   -0.2573947972
     H     2.2894180475    1.7142510797   -0.3378778777
     H     1.5748084034   -2.3781945542    0.0067359419
     H     3.9736272337   -2.8766637493    0.1259481915
     H     6.7494765063    0.0777450757   -0.0492261479
     C    -1.8670078060   -2.3872987386   -3.7391506897
     C    -0.5543668842   -1.8630219789   -3.7931745626
     C    -0.0350584475   -1.1979796996   -2.7029932819
     N    -0.7398907905   -1.0139976808   -1.5536215403
     C    -2.0102941591   -1.5112766411   -1.4941800768
     C    -2.5924122212   -2.1894688460   -2.5418286035
     S    -2.6406408517   -3.2510393805   -5.0369206241
     H     0.0618440825   -1.9773853388   -4.6787338383
     H     0.9704195937   -0.7936480506   -2.7246863640
     H    -2.5548496839   -1.3587137714   -0.5660379755
     H    -3.6036562658   -2.5666935051   -2.4292819684
     H    -1.6133733858   -3.1956789789   -5.9099699538
     C    -0.9565944861    4.5348698726   -0.7045571723
     C    -0.8111964143    3.6235567685   -1.7749370280
     C    -0.5673304499    2.2928696339   -1.5133319129
     N    -0.4553320859    1.7980893442   -0.2495664216
     C    -0.5953710064    2.6713140147    0.7931238113
     C    -0.8358512542    4.0137696295    0.6035658425
     S    -1.2741743864    6.2364043961   -0.8885897905
     H    -0.8934431050    3.9457721046   -2.8075293373
     H    -0.4620574147    1.5787805342   -2.3207253784
     H    -0.5230288221    2.2574578419    1.7915326641
     H    -0.9419486986    4.6537338066    1.4736458032
     H    -1.3139204809    6.2544001958   -2.2371529903
    Cl    -1.1178589475   -0.4496239712    2.0630179158
