21
-1.3187479452118585e+03 frame 37   xyz file generated by TeraChem
    Co    -0.1240063293   -0.0370619994   -0.0012857102
     N     1.7622940887    0.2063749697    0.2431651955
     C     2.9560539675    0.2202407579    0.2571883991
     S     4.5599889914    0.2534995682    0.2909382103
     N    -0.8934376976   -1.2735879718   -1.2392484487
     C    -1.1959635827   -2.0903657152   -2.0557867228
     S    -1.6227311224   -3.1839952582   -3.1490647104
     C    -1.3613125415    2.8243437545    0.2299126094
     N    -0.7343550307    1.8469107687   -0.7056965204
     H     0.1038438272    2.2708907003   -1.1113510292
     H    -1.3632173312    1.6890114804   -1.4961962023
     H    -0.6882316863    2.9931853225    1.0726757144
     H    -2.3021596351    2.4115498413    0.5989624362
     H    -1.5621079397    3.7799209504   -0.2628708213
     C    -1.3623830638    0.1957813739    2.8588354277
     N    -0.7340115034   -0.7405908635    1.8830817520
     H    -1.3617324716   -1.5322189084    1.7263492725
     H     0.1047667675   -1.1443349146    2.3077345193
     H    -2.3039858775    0.5624024419    2.4455716558
     H    -0.6907260091    1.0400332702    3.0259059509
     H    -1.5621135482   -0.2954779170    3.8154244005
