13
-1.7008456209419558e+03 frame 47   xyz file generated by TeraChem
    Mn    -0.0025136583    0.0075314854   -0.0009473297
     S     2.3804923823    0.4662733876   -0.3636709915
     H     2.4124101002    1.7262487820   -0.8550291984
     H     2.6293775717   -0.1202600754   -1.5573076873
     S     0.3856177645   -2.3911352669   -0.3760649880
     H     1.4348266147   -2.6761377614    0.4291682002
     H    -0.5272065340   -2.9925224087    0.4211412552
     S    -0.3542763659    2.1732129467    1.0931849847
     H     0.6477789066    2.2463628515    1.9990153046
     H    -1.3117118660    1.9182733581    2.0143174142
     S    -2.4077068217   -0.3051591088   -0.3736143512
     H    -2.4571941561   -0.9300418018   -1.5727784339
     H    -2.8319919914    0.8852124447   -0.8562809742
