9
-1.3053187586358813e+03 frame 23   xyz file generated by TeraChem
    Fe     0.2118295907    0.2504166955   -0.0085007576
     N     1.9232375757   -0.8181675384    0.1836752972
     C     3.0351190671   -1.1714973983    0.3497963570
     S     4.6115349624   -1.6574520651    0.5831964058
     N    -0.4973078603   -0.6043027028   -1.5634088213
     C    -0.9700422029   -1.0389030772   -2.5492033200
     S    -1.6387928160   -1.6578080032   -3.9413149502
     F    -0.6218023760    1.8528910866   -0.2214393013
     F    -0.5462142603   -0.4623293308    1.4653212912
