15
-6.3427750749864117e+02 frame 72   xyz file generated by TeraChem
    Cr     0.2837925675    1.1636891170   -0.0014984262
     C     4.7619155258   -0.9382366032    0.0703660890
     C     4.1151823459   -0.6779272714   -1.1375608477
     C     2.8484768173   -0.1044265180   -1.1108891297
     N     2.2302511528    0.2163615525    0.0413637535
     C     2.8458763302   -0.0515990360    1.2080660817
     C     4.1130573883   -0.6220473814    1.2638923642
     H     5.7512900227   -1.3865119920    0.0818417881
     H     4.5758499667   -0.9205297416   -2.0894319323
     H     2.2852921075    0.0977158579   -2.0143808338
     H     2.2845343221    0.1898127003    2.1034684529
     H     4.5725165209   -0.8194577135    2.2267464164
     F     0.0432300936    0.4001281150   -1.5632829203
     F    -0.5158938250    2.7175252791   -0.1959109576
     F     0.0202273024    0.4284782721    1.5646415225
