15
-3.8646892020988918e+02 frame 58   xyz file generated by TeraChem
    Mn     0.1578446724    0.2403892241    0.2336315627
     C     4.8785141236   -0.2477247016   -0.1752368502
     C     4.0293984545   -0.4043343705   -1.2696104357
     C     2.6587410956   -0.2671149757   -1.0847762768
     N     2.1277755160    0.0086556550    0.1255896279
     C     2.9471083476    0.1628812280    1.1863164327
     C     4.3253307060    0.0418442020    1.0722311976
     H     5.9533720364   -0.3486457056   -0.2917000893
     H     4.4134413181   -0.6284729704   -2.2587200802
     H     1.9613914187   -0.3789922122   -1.9085399014
     H     2.4634379862    0.3810692630    2.1302660852
     H     4.9465648084    0.1734412984    1.9513481162
     I    -1.2673175011   -0.5519377534   -1.7555020280
     I     0.1079297422    2.8093236887    0.2566658525
     I    -0.4049784524   -1.2920036655    2.2204434821
