13
-8.4076237467763531e+02 frame 24   xyz file generated by TeraChem
    Cr     0.1829432126   -0.2031067769   -0.2231820370
     C    -1.6056673487   -2.1358977287   -0.9954229377
     O    -0.6656767870   -1.3164908045   -1.4631907633
     C    -1.7575811211   -1.9826497831    0.5505619239
     O    -2.5286295579   -2.6371015735    1.2140095089
     O    -0.9315751149   -1.0484179409    1.0180238485
     O    -2.2654849973   -2.9025112573   -1.6587771469
     C     2.5835151066    1.1255298340   -0.0424072055
     O     2.0332357540   -0.0825021560    0.0492905177
     C     1.5124320157    2.1969148773   -0.4041926905
     O     1.7683517681    3.3672809083   -0.5728615884
     O     0.3042164467    1.6472471614   -0.4959395819
     O     3.7539824643    1.3806703282    0.1263367149
