65
-1.5409838887439601e+03 frame 138   xyz file generated by TeraChem
    Cr     0.1300585888   -0.0156768996    0.5187274667
     C     2.0978089774   -0.2727644596    0.8407653838
     N     3.2361850586   -0.4213970782    1.0230438164
     C     5.0522633137   -2.0570090933    0.7911868741
     C     4.9719814834   -3.1240725172    1.6944504825
     C     5.3539111333   -4.4039240036    1.2938430715
     C     5.8151109096   -4.6200514503   -0.0072212230
     C     5.8972809052   -3.5561204512   -0.9088035636
     C     5.5149781507   -2.2747393155   -0.5121853795
     H     4.6320436528   -2.9538806032    2.7135229909
     H     5.3063180141   -5.2276806149    1.9994878095
     H     6.2722041482   -3.7208184837   -1.9142979828
     H     5.5973307982   -1.4439099571   -1.2091966821
     H     6.1233681020   -5.6149650826   -0.3140226879
     C     4.6533410633   -0.6641953648    1.2292991353
     H     5.1783079954    0.1136077610    0.6657344270
     H     4.8362645800   -0.4954252568    2.2954509818
     C    -0.4961734722   -1.3960613612   -0.8010075093
     N    -0.8501858582   -2.1971521848   -1.5653527031
     C    -2.5367021127   -2.6368570823   -3.2950224333
     C    -3.8255369521   -2.8042578097   -2.7733242574
     C    -4.9294838907   -2.3351947973   -3.4842569870
     C    -4.7486645487   -1.6999690794   -4.7157385268
     C    -3.4639485306   -1.5339086195   -5.2381314219
     C    -2.3569208806   -1.9993404971   -4.5284710281
     H    -3.9695943530   -3.3183904317   -1.8256361825
     H    -5.9293982872   -2.4792695076   -3.0866019172
     H    -3.3246145281   -1.0555883558   -6.2027695523
     H    -1.3587294340   -1.8850161415   -4.9448457185
     H    -5.6103312423   -1.3469591470   -5.2742173057
     C    -1.3384790587   -3.1628675050   -2.5348649932
     H    -0.4934342576   -3.3829224049   -3.1946164110
     H    -1.5716601975   -4.0684522212   -1.9654057209
     C    -0.1987150770    1.8088942931   -0.2630744246
     N    -0.3885460009    2.8561550029   -0.7303579428
     C    -1.3921007451    5.0502215773   -0.2721145993
     C    -2.7917018497    5.0342032604   -0.2275598186
     C    -3.4676618321    5.8530381653    0.6763454891
     C    -2.7480210875    6.6866572951    1.5362742000
     C    -1.3519067821    6.7038696547    1.4925345118
     C    -0.6721390185    5.8856765332    0.5904151397
     H    -3.3538244120    4.4008712092   -0.9102159774
     H    -4.5531230147    5.8523010545    0.6988314004
     H    -0.7933242289    7.3637175974    2.1492165472
     H     0.4140895709    5.9147116001    0.5444995720
     H    -3.2761241362    7.3325491554    2.2311886086
     C    -0.6581469364    4.1783502864   -1.2680885162
     H     0.3145730623    4.5956332358   -1.5470166589
     H    -1.2362589748    4.0182603979   -2.1838500851
     C    -0.8502703142   -0.2360202050    2.2620701907
     N    -1.4116287659   -0.3587339742    3.2724828599
     C    -1.1724023878   -1.2721620968    5.5379701965
     C    -1.2258903327   -2.6689681104    5.6191046972
     C    -0.4158517498   -3.3438583167    6.5320284305
     C     0.4483589233   -2.6258706535    7.3623266566
     C     0.5019282203   -1.2320552752    7.2831953655
     C    -0.3066157383   -0.5536242496    6.3715876154
     H    -1.9121433612   -3.2281808690    4.9872159371
     H    -0.4703014564   -4.4256719266    6.6057973932
     H     1.1603307791   -0.6730182222    7.9410265522
     H    -0.2781292171    0.5326619103    6.3251199693
     H     1.0693814900   -3.1518232303    8.0811721843
     C    -2.0623786893   -0.5370966374    4.5586738261
     H    -2.3219051740    0.4675611580    4.9072807350
     H    -2.9916958130   -1.0786597521    4.3554603442
