37
-1.0233681216998618e+03 frame 37   xyz file generated by TeraChem
    Mn    -0.0139392578    0.0337223974    0.0066058058
     O     1.9647206778   -0.3030212008   -0.1986392280
     C     2.9733284836    0.2298506101    0.6463433444
     C     4.1270861999    0.3249552245   -0.0547311376
     C     3.8684509360   -0.1384849074   -1.4006822840
     C     2.5700078398   -0.5087346838   -1.4696295806
     H     2.6789086940    0.3967669409    1.6750587895
     H     5.0805263693    0.6621601324    0.3392209863
     H     1.9287894085   -0.9392791906   -2.2272231159
     H     4.5883418204   -0.2012583367   -2.2102299144
     O    -0.4289631728   -1.7354572948   -0.8715413926
     C     0.2108502809   -2.9863314974   -0.6515711999
     C    -0.5441524348   -3.9649877263   -1.1988413854
     C    -1.7071872726   -3.3485031738   -1.7977043069
     C    -1.6255002130   -2.0151493285   -1.5852820557
     H     1.1471459116   -2.9460049787   -0.1125739372
     H    -0.3072916136   -5.0238939921   -1.1924710172
     H    -2.2155742407   -1.1530066696   -1.8703385048
     H    -2.4992625371   -3.8546828026   -2.3400155495
     O    -0.0364754671    2.0172679626   -0.1940518908
     C    -1.2592115331    2.7345215859   -0.3821508482
     C    -0.9765446018    3.9445446465   -0.9097215096
     C     0.4588821991    4.0378204598   -1.0720038951
     C     1.0042073217    2.8800680902   -0.6426026397
     H    -2.1532994164    2.2239119220   -0.0499600565
     H    -1.7037255888    4.7123952917   -1.1531660462
     H     2.0050818000    2.4850869039   -0.5366216652
     H     1.0081566806    4.8900715624   -1.4584572651
     O    -1.4696258127   -0.1177697061    1.3798666143
     C    -1.5198772277    0.7825724889    2.4881275466
     C    -2.3258058286    0.2624400190    3.4377803070
     C    -2.8256048327   -1.0053632051    2.9503438237
     C    -2.3037773407   -1.2197046612    1.7235348501
     H    -0.9468903162    1.6931219628    2.3753923005
     H    -2.5600278167    0.7243380196    4.3913243513
     H    -2.3951936994   -1.9929068173    0.9740718771
     H    -3.5082516329   -1.6700375532    3.4696997724
