48
-2.3566409031806206e+03 frame 101   xyz file generated by TeraChem
    Ni    -0.3581040372   -0.3075839881    0.0440322801
     C     4.3944741762   -0.8140238149    0.8209812983
     C     3.8524215842    0.4607155341    0.6504118084
     C     2.4856988067    0.5859754986    0.4268751071
     N     1.6645338022   -0.4832940147    0.3675950735
     C     2.1917925996   -1.7179536095    0.5265447981
     C     3.5471317483   -1.9224454399    0.7572564331
     H     5.4577677007   -0.9423236633    0.9991335199
     H     4.4742891488    1.3486454071    0.6895630375
     H     2.0199192100    1.5549056176    0.2877404649
     H     1.5046381460   -2.5580747854    0.4648647141
     H     3.9255671880   -2.9313592859    0.8823731256
     C    -0.6723703636   -2.5516474037   -4.2655823110
     C     0.5152531343   -1.8896708334   -3.8938345066
     C     0.5831055912   -1.2434105629   -2.6733846553
     N    -0.4478200021   -1.2049514752   -1.7960942171
     C    -1.5936872254   -1.8384581351   -2.1547930666
     C    -1.7457814773   -2.5103069325   -3.3511150227
     S    -0.8987572909   -3.4119698116   -5.7719975270
     H     1.3823159220   -1.8783251300   -4.5459383965
     H     1.4909536963   -0.7333084087   -2.3698533555
     H    -2.4161575130   -1.8027714540   -1.4450065431
     H    -2.6888567853   -2.9994042477   -3.5722163846
     H     0.3308505762   -3.1849210972   -6.2779855883
     C    -1.1311016510    4.4045175211   -0.7797805898
     C    -1.0771922657    3.4795700180   -1.8408714921
     C    -0.8550240422    2.1418964405   -1.5689250010
     N    -0.6878226480    1.6598655391   -0.3149877694
     C    -0.7393690242    2.5467807865    0.7102257696
     C    -0.9520385722    3.8982886362    0.5252016483
     S    -1.4018577236    6.1224467748   -0.9720635207
     H    -1.2075500599    3.7929705536   -2.8712921037
     H    -0.8071908072    1.4138789047   -2.3710034050
     H    -0.6081339038    2.1388697958    1.7068274823
     H    -0.9820892695    4.5555593563    1.3882147862
     H    -1.5070053308    6.1245374916   -2.3168309566
     C    -2.3601048883   -1.0236676613    4.4220410206
     C    -3.0977229814   -0.5335060022    3.3255210016
     C    -2.4542062318   -0.2980645089    2.1250171606
     N    -1.1301659697   -0.5204776209    1.9319348628
     C    -0.4190907472   -0.9846716783    2.9887966202
     C    -0.9809906999   -1.2431243853    4.2229193057
     S    -3.0357446576   -1.3669608899    5.9985072860
     H    -4.1614105299   -0.3345308946    3.4023454239
     H    -3.0118579750    0.0955785537    1.2791949622
     H     0.6393663127   -1.1451307849    2.8190200087
     H    -0.3530010952   -1.6132161483    5.0267844921
     H    -4.3085291157   -1.0242082599    5.7120747911
