16
-9.7944128902439820e+02 frame 67   xyz file generated by TeraChem
    Co     0.2690464366   -0.0482699423   -0.6696349649
     S     1.9467968201    1.4378636312   -0.6688956976
     C     2.8599576184    0.7007914421    0.5451357546
     N     3.4302469087    0.1670749733    1.4168125339
     C    -1.4968562041   -2.4397404182   -1.0415534708
     O    -0.6115831854   -1.6740799512   -1.4037029167
     H    -2.0142056346   -2.3064449263   -0.0807009737
     H    -1.7841457798   -3.2792416069   -1.6876176688
     C    -1.3302336385    2.4308836197   -1.4252759012
     O    -1.2518128972    1.2171224266   -1.2808371206
     H    -2.2707605379    2.8743860965   -1.7790521440
     H    -0.4840802546    3.0986279870   -1.2086244027
     C     0.3766382364   -0.5444010119    2.3435378844
     O    -0.2233930484   -0.4188618577    1.2779560324
     H     1.4648702675   -0.4108974487    2.4194740105
     H    -0.1982595817   -0.7935513358    3.2460746000
