22
-2.2059735356092478e+03 frame 155   xyz file generated by TeraChem
    Cr     0.1368239261   -0.5392435543   -0.4746063768
     S     2.4390845022   -0.2144321552   -0.1343424651
     C     2.4902314021    1.0897835619    0.9439818405
     N     2.5524494269    1.9634803074    1.7180006972
     S    -1.9086874525   -1.6892579650   -1.6630232177
     C    -0.5570298210   -2.5188085528   -1.2148867153
     N     0.5181915114   -2.7538876232   -0.7537970488
     S    -0.2609037979    1.7184340089   -0.9384107178
     C    -1.9538619096    1.7631470071   -0.8978867850
     N    -3.1200783365    1.7990032871   -0.8055381415
     C    -1.3236824950   -1.1028808453    4.0725647072
     C    -2.0874943732   -0.3617667189    3.1580246111
     C    -1.6383779433   -0.2141651567    1.8572017315
     N    -0.4797717037   -0.7614513040    1.4287018635
     C     0.2607683446   -1.4854972993    2.3007326470
     C    -0.1252075285   -1.6755389475    3.6139164490
     S    -1.7850115739   -1.3557654259    5.7538447034
     H    -3.0247303172    0.1041583583    3.4421096281
     H    -2.2170640920    0.3526601894    1.1357017361
     H     1.1778960770   -1.9106039040    1.9132939894
     H     0.5085635700   -2.2608030699    4.2713597570
     H    -2.9284216291   -0.6420969916    5.7139051091
