11
-6.1967177454027228e+02 frame 21   xyz file generated by TeraChem
    Mn     0.2315441619    0.2130113882   -0.0711130514
     O     2.1378373673    0.6696465843   -0.3095322968
     N     4.1153387881   -0.3150443011   -1.3435593003
     C     3.1289483823    0.1260458944   -0.8584099923
     O     0.2483844903   -1.1678816908   -1.4410873537
     N    -1.2921154005   -2.8700017948   -2.2694251482
     C    -0.5742430525   -2.0386610238   -1.8284690236
     O    -0.4898570829    2.0437868028   -0.3725440783
     N    -2.4734010642    3.4360486098   -0.1031559497
     C    -1.5299605837    2.7279326738   -0.2121398490
     I    -1.0509104928   -0.7941906126    2.1806849140
