65
-1.6240111912637155e+03 frame 71   xyz file generated by TeraChem
    Ni     0.5601094366    0.8211200491    0.0164362624
     C     2.5343847693    0.4543581233    0.3259393345
     N     3.6698382592    0.2740655811    0.4729347846
     C     5.3495878238   -1.3141393108    1.3094826517
     C     5.4984508486   -1.4020854947    2.6988867075
     C     5.7664531784   -2.6354309023    3.2920821823
     C     5.8811239083   -3.7809815514    2.5009644784
     C     5.7308519884   -3.6951814341    1.1142615229
     C     5.4656160813   -2.4635776428    0.5173664973
     H     5.4275136018   -0.5079643853    3.3137500786
     H     5.9014335791   -2.6990096462    4.3674424844
     H     5.8376366277   -4.5827575019    0.4982217633
     H     5.3724044275   -2.3941438519   -0.5641030291
     H     6.1018551278   -4.7385790049    2.9628348575
     C     5.0904802029    0.0278672172    0.6607423053
     H     5.5409556107    0.1015861253   -0.3340715480
     H     5.4615681524    0.8598154667    1.2669352528
     C     0.0993660763   -0.6210267288   -1.3260766879
     N    -0.1683415397   -1.4386887281   -2.1021959589
     C    -1.9921018932   -2.3208530164   -3.5000171688
     C    -2.9891108670   -2.9946633302   -2.7831574451
     C    -4.3212817157   -2.8959866668   -3.1828236481
     C    -4.6603435181   -2.1251168460   -4.2977772028
     C    -3.6672618532   -1.4532798798   -5.0150881254
     C    -2.3338672938   -1.5492435485   -4.6175062853
     H    -2.7238643888   -3.6135810838   -1.9288985588
     H    -5.0910123797   -3.4321323350   -2.6361583194
     H    -3.9285252361   -0.8689616524   -5.8920434452
     H    -1.5600230600   -1.0430294699   -5.1900424914
     H    -5.6963421597   -2.0601004568   -4.6163997534
     C    -0.5443213591   -2.4472730424   -3.0814587625
     H     0.1424371596   -2.3173654685   -3.9234845755
     H    -0.3317501911   -3.4131269665   -2.6128485187
     C    -0.8135095325    2.2212813633   -0.5078365563
     N    -1.5877705726    3.0286901840   -0.8105590861
     C    -3.1660084576    4.6760826064    0.0978205991
     C    -4.3316143117    4.1302402891    0.6503246042
     C    -4.9008095317    4.7099801391    1.7836206010
     C    -4.3064632983    5.8316606810    2.3673396500
     C    -3.1439133054    6.3775405207    1.8169280541
     C    -2.5719755479    5.8010160048    0.6833096717
     H    -4.8058469249    3.2696529494    0.1840559960
     H    -5.8144999276    4.2976915530    2.2006629187
     H    -2.6918023834    7.2589540684    2.2609885007
     H    -1.6775365066    6.2374743631    0.2451261372
     H    -4.7567638854    6.2887957068    3.2432352362
     C    -2.5581825579    4.0595466225   -1.1429455629
     H    -2.0199858999    4.7927154403   -1.7516327808
     H    -3.3078452842    3.5734015105   -1.7749863429
     C    -0.2824417243    0.0762251738    1.6944193081
     N    -0.7851937160   -0.3343459753    2.6540903919
     C    -0.5489791718   -1.9278953085    4.5195323671
     C    -0.6978759583   -3.2692427469    4.1448406132
     C     0.0651676077   -4.2553114422    4.7685736773
     C     0.9768324138   -3.9043376849    5.7675719053
     C     1.1259198515   -2.5672522725    6.1438554644
     C     0.3652755240   -1.5782686060    5.5207791136
     H    -1.4231118086   -3.5464585254    3.3830751686
     H    -0.0628575752   -5.2963398813    4.4882365735
     H     1.8210557030   -2.2964619837    6.9326789812
     H     0.4681450253   -0.5404172643    5.8291068248
     H     1.5597487455   -4.6749139646    6.2630269824
     C    -1.3972841410   -0.8614105258    3.8640508189
     H    -1.5540221756    0.0012422666    4.5188321558
     H    -2.3775047748   -1.2421384266    3.5606822515
