48
-1.3923589879735312e+03 frame 38   xyz file generated by TeraChem
    Fe    -0.0176542479   -0.0143398293    0.0400814946
     C     4.7890901698    0.0673523041    0.2791860749
     C     4.0886602559    1.1386306395   -0.3140550297
     C     2.7080471063    1.0911631152   -0.3656817335
     N     1.9945574457    0.0435619711    0.1391829627
     C     2.6725393228   -0.9910622685    0.7186882340
     C     4.0513635261   -1.0161630139    0.8034687680
     C     6.2108373546    0.0789672560    0.3506220264
     H     4.6198172760    1.9906938988   -0.7257975062
     H     2.1452103789    1.9013872461   -0.8164240174
     H     2.0799283067   -1.8041949438    1.1271895324
     H     4.5534044675   -1.8567685965    1.2715619512
     N     7.3743403000    0.0871477171    0.4095478947
     C    -1.5534856008   -3.0568066740   -3.3658887145
     C    -0.2042971849   -3.0788354995   -2.9548714899
     C     0.2155618994   -2.1897060920   -1.9829158857
     N    -0.6285370581   -1.2876884227   -1.4041794705
     C    -1.9337101252   -1.2622026998   -1.8073431933
     C    -2.4273109892   -2.1211163023   -2.7702511244
     C    -2.0256516198   -3.9575622878   -4.3619740514
     H     0.4992350091   -3.7805798963   -3.3910333472
     H     1.2471734503   -2.1835134643   -1.6486879729
     H    -2.5818087983   -0.5263888965   -1.3401442174
     H    -3.4710496130   -2.0699185909   -3.0630964921
     N    -2.4140469971   -4.6942258053   -5.1768040235
     C    -1.7946255662    4.2902805034   -1.1913795419
     C    -1.1955881687    3.4501388572   -2.1555663891
     C    -0.7088516609    2.2187892371   -1.7611028113
     N    -0.7812859561    1.7847250016   -0.4681932267
     C    -1.3612376202    2.5958963019    0.4629845635
     C    -1.8733545169    3.8396162821    0.1430228218
     C    -2.3097433867    5.5650666419   -1.5599881953
     H    -1.1196963857    3.7597003636   -3.1929759348
     H    -0.2518069066    1.5485694178   -2.4830064535
     H    -1.4144897761    2.2243635472    1.4808324132
     H    -2.3292382359    4.4550567036    0.9118637980
     N    -2.7315406987    6.6081409694   -1.8627426577
     C    -1.5282186077   -1.3482162269    4.3901689848
     C    -0.5376573414   -0.3677083837    4.2443030344
     C    -0.1216302755   -0.0171076207    2.9702933724
     N    -0.6537958869   -0.5956694925    1.8543127885
     C    -1.6156553017   -1.5509294054    1.9988255634
     C    -2.0708018013   -1.9470062201    3.2467061247
     H    -1.8694007637   -1.6417006667    5.3792620740
     H    -0.0904864651    0.1157388461    5.1071919644
     H     0.6525640152    0.7300824855    2.8199610863
     H    -2.0101606079   -1.9946317622    1.0908119934
     H    -2.8371445349   -2.7121744551    3.3198171648
