21
-5.8690031220462413e+02 frame 63   xyz file generated by TeraChem
    Mn    -0.4931508613    0.0483906812    0.2871181206
     O     1.7941523196    0.0341789497    0.2849549664
     C     2.6146792392   -0.8234474183    1.0044815926
     C     3.9059742430   -0.5890255230    0.6774983891
     C     3.9091769739    0.4725407422   -0.2958433034
     C     2.6194895881    0.8222785003   -0.5048714025
     H     2.1001673788   -1.4897508200    1.6787754408
     H     4.7659387914   -1.1032456965    1.0828962210
     H     2.1112907810    1.5625235235   -1.1022602317
     H     4.7720214376    0.9190749861   -0.7695864298
     O    -0.7292111929   -1.2965280789   -1.5269422221
     C    -0.7568652363   -2.6850748523   -1.5189371954
     C    -0.7761728965   -3.1434331815   -2.7907612602
     C    -0.7628739613   -1.9910641363   -3.6545339516
     C    -0.7359603538   -0.8989166119   -2.8577967112
     H    -0.7739893082   -3.1297597567   -0.5367923529
     H    -0.8044863730   -4.1817467186   -3.0896356462
     H    -0.7383333111    0.1686899754   -3.0096312994
     H    -0.7795355773   -1.9867844552   -4.7352793129
     I    -1.0735712806    2.4684901809   -0.6849230787
     I    -1.1091642045   -1.5522227189    2.3357212374
