13
-1.9588577003320465e+03 frame 51   xyz file generated by TeraChem
    Cr     0.9573605482    0.4590252833   -0.1964792476
     S     3.4155690627    0.6494021862   -0.6816938811
     C     2.8295146922   -0.6603231190    0.1526402379
     N     2.0426027954   -1.3748574476    0.6858337628
     S     0.0128170436   -0.4841397613   -2.1240143336
     C    -0.5375292548   -1.9323611169   -1.4512130096
     N    -0.9577579046   -2.9046440422   -0.9524351856
     S     0.5149571475    2.7139562641   -0.5930520504
     C    -1.1671020946    2.6746178557   -0.3964812401
     N    -2.3230774412    2.6166686875   -0.2275639275
     S    -0.8446653445   -0.1384461159    1.4651921910
     H    -1.1392565131   -1.3608128736    0.9648732026
     H    -1.8897136279    0.4961548315    0.8852283016
