25
-6.3378989136662790e+02 frame 122   xyz file generated by TeraChem
    Mn    -0.0287534883   -0.0675706511    0.0099004274
     C     1.8667705607    0.1624803568   -0.3180627376
     N     3.0009327901    0.3033168388   -0.5045741027
     C     4.4048438138    0.4774130056   -0.7323831401
     H     4.7567578821   -0.3442175914   -1.3662947253
     H     4.9150465864    0.4631389037    0.2377308379
     H     4.5554806441    1.4420774702   -1.2308032678
     C    -0.5954818138   -1.4149076019   -1.2803310780
     N    -0.9440803683   -2.2176662402   -2.0388701808
     C    -1.3794839326   -3.2108586151   -2.9747742703
     H    -1.9716285746   -2.7144952269   -3.7525320318
     H    -1.9920246516   -3.9443875143   -2.4374612637
     H    -0.4947529691   -3.6897450459   -3.4089561481
     C    -0.9537752463    1.6120642070   -0.2698200731
     N    -1.5072759455    2.6138566467   -0.4458310115
     C    -2.1958922310    3.8513424038   -0.6652553936
     H    -2.9025267513    4.0042850467    0.1581399580
     H    -2.7255676242    3.7851391523   -1.6226907060
     H    -1.4538510627    4.6578082073   -0.6926591518
     C    -0.3681734515   -0.4859630313    1.8831199968
     N    -0.5665936043   -0.7474809058    2.9938216982
     C    -0.8117489040   -1.0755759614    4.3663556753
     H    -0.5616047690   -2.1316240768    4.5191200137
     H    -1.8706901841   -0.8925375004    4.5816796129
     H    -0.1768293756   -0.4360509937    4.9910144784
