8
-4.3513312950146417e+02 frame 21   xyz file generated by TeraChem
    Co     0.0256970414   -0.0052079516   -0.0456814043
     C     2.0583612994    0.2165038353    0.0440897531
     N     3.2223517466    0.3546902628    0.0620842613
     C    -0.5251891478   -1.3637054319   -1.4707378483
     N    -0.8263837422   -2.1234566391   -2.3112138749
     C    -0.9008928936    1.7946369103   -0.3450490731
     N    -1.4123624241    2.8291554765   -0.5512168772
     I    -0.8467408044   -1.0438150733    2.4688050177
