14
-9.2652545998779033e+02 frame 42   xyz file generated by TeraChem
    Fe     0.3543764671    0.6176400838   -0.4609561580
     C     3.0162884939   -0.0493130073    0.6620275509
     O     2.1849981025    0.3389641434   -0.1686561684
     H     2.7111438778   -0.5613030223    1.5837597005
     H     4.0776858591    0.1297863029    0.4482177575
     C    -0.1508488601   -1.7895781431   -2.0924425924
     O     0.3075650084   -0.6671019515   -1.8536255654
     H    -0.7366031408   -2.3509339375   -1.3529222815
     H     0.0459510554   -2.2211872167   -3.0823176243
     C    -1.9479724969    2.3116264673   -1.1998570650
     O    -0.8446387817    1.7682694849   -1.3364935082
     H    -2.6394797163    2.0142932817   -0.4009362539
     H    -2.2217660621    3.1024787556   -1.9097758000
    Cl    -0.5437148275    0.3484698970    1.4011290038
