13
-2.0682926030504650e+03 frame 43   xyz file generated by TeraChem
    Mn    -0.0094810906   -0.0070894583    0.0098600389
     N     1.8158320902   -0.2452634496   -0.2461194410
     C     2.9821006393   -0.4237965182   -0.4138153608
     S     4.5590699002   -0.6550129358   -0.6407433082
     N    -0.7365805682   -1.1260791279   -1.2858602417
     C    -1.1715937214   -1.8112175293   -2.1590939581
     S    -1.7676452354   -2.7472792654   -3.3245521944
     N    -0.8396600189    1.6297212847   -0.2721897316
     C    -1.3959166840    2.6713672508   -0.4332820322
     S    -2.1383792701    4.0822974598   -0.6554533019
     N    -0.2733279674   -0.3006305644    1.8286648459
     C    -0.4136696335   -0.4345878955    3.0051258797
     S    -0.6127696350   -0.6314555990    4.5898919128
