25
-6.7505739634407041e+02 frame 71   xyz file generated by TeraChem
    Co    -0.0144844143   -0.0268956592    0.0194592736
     C     3.0077820445    0.4382479427    0.5676216406
     N     1.8685640734    0.2635313301    0.3620446450
     C     4.4064166649    0.6551942713    0.8156708323
     H     4.5355680398    1.1509069723    1.7928121542
     H     4.8260614628    1.3123777484    0.0379682892
     H     4.9419163116   -0.3048188908    0.8253156678
     C    -0.2627211171   -2.3536617084   -2.0173082590
     N    -0.1637277444   -1.4699098932   -1.2557412098
     C    -0.3828324908   -3.4419120226   -2.9474725548
     H     0.6171537352   -3.8334144312   -3.1940373082
     H    -0.8518270501   -3.0834747602   -3.8790788067
     H    -0.9991746996   -4.2424553932   -2.5141758095
     C    -1.3695549156    2.4393923783   -1.2917325758
     N    -0.8577010129    1.5099246031   -0.7970786522
     C    -1.9947253097    3.5833324435   -1.8960115163
     H    -1.4444131943    3.8737651566   -2.8047147313
     H    -1.9697074115    4.4322596743   -1.1917061060
     H    -3.0403497562    3.3545795975   -2.1469094716
     C    -1.3845627788   -0.5418504514    2.7535856328
     N    -0.8676278206   -0.3423166918    1.7220654330
     C    -2.0224226683   -0.7894069410    4.0166689064
     H    -3.0917910910   -1.0061822050    3.8544778731
     H    -1.9247598800    0.0898227869    4.6693330047
     H    -1.5632624060   -1.6668258847    4.4997929922
