13
-2.0506625718404944e+03 frame 20   xyz file generated by TeraChem
    Cr     0.3657077247   -0.1881505554   -0.1920559510
     S     2.5439973961    0.2506650592    0.2457405659
     C     2.4889801890    1.4567704852    1.4435460470
     N     2.4938286547    2.2865250633    2.2675480552
     S     0.8345275456   -1.7548098671   -1.7604090856
     C    -0.6888697058   -2.2921165149   -2.2917049765
     N    -1.7172523280   -2.6876810865   -2.6834803250
     N    -0.4490228506    1.2886181974   -0.9591281827
     C    -0.8887309526    2.2402689552   -1.5348399789
     S    -1.4969463157    3.5160747315   -2.2903218944
     N    -0.4476311596   -0.9570406006    1.2846045277
     C    -0.8787073806   -1.5319864816    2.2406781998
     S    -1.4763920242   -2.2864443083    3.5220171051
