25
-5.0402104426733467e+02 frame 57   xyz file generated by TeraChem
    Fe     0.1132453667   -0.1312887408   -0.1458716554
     N    -0.4355630579   -1.9986095163   -0.7601889677
     N    -0.8772742052   -0.6497597547    1.5728179141
     C    -1.6921201149   -1.8923624165    1.3290782564
     C    -0.8773079813   -2.8078767694    0.4326788127
     H    -1.4557112228   -3.6827687061    0.1222671582
     H     0.0231757068   -3.1633781384    0.9437852007
     H    -2.6219096433   -1.5863567338    0.8390039196
     H    -1.9539495283   -2.3826160187    2.2710541817
     H    -1.2164926908   -1.9366460957   -1.4224998651
     H     0.2910383751   -2.5112212821   -1.2670118095
     H    -0.1975152550   -0.8380637088    2.3173330751
     H    -1.4773080599    0.0866339286    1.9528329228
     N     1.1316539953    0.3804388906   -1.8450894281
     N     0.6481306350    1.7355378149    0.4808363751
     C     1.7295021418    2.2748397798   -0.4209077864
     C     1.3891807450    1.8654460646   -1.8436298373
     H     2.1941823004    2.1258231458   -2.5368241470
     H     0.4756644218    2.3605533773   -2.1889387824
     H     2.6793738678    1.8361969974   -0.0982340252
     H     1.8133041935    3.3613978578   -0.3277981752
     H     2.0332861920   -0.1082807762   -1.8680786337
     H     0.6729719774    0.1156633410   -2.7209835412
     H    -0.1598732211    2.3665614287    0.4340979833
     H     0.9591737159    1.7925441660    1.4546893593
