31
-9.6522105968544156e+02 frame 90   xyz file generated by TeraChem
    Fe    -0.0041578344   -0.0864288700   -0.2864559075
     O    -0.5419778195   -1.2907305343   -1.6606055774
     C    -1.2896992866   -2.2700561919   -1.1189935740
     C    -1.6131617254   -2.1399520678    0.2694117309
     C    -2.3892674876   -3.1145036433    0.8928274728
     C    -2.8645553151   -4.2305968252    0.1752632882
     C    -2.5440563811   -4.3446757678   -1.1787518823
     C    -1.7613897624   -3.3740696262   -1.8259205699
     O    -1.1350003020   -1.0486400532    0.8979797404
     H    -2.6208599179   -2.9944925725    1.9497328778
     H    -2.9053323931   -5.2021615685   -1.7448059753
     H    -1.5132995088   -3.4662629870   -2.8806554709
     C    -3.6999785536   -5.2823275228    0.8717054346
     H    -3.1453961019   -5.7774958737    1.6817564871
     H    -4.0207445848   -6.0613800834    0.1702157419
     H    -4.6047765547   -4.8545218505    1.3262918165
     O     1.8731626301    0.0372552502    0.0537902591
     C     2.3084469726    1.3004947992   -0.0707560616
     C     1.3174040871    2.2666807651   -0.4206595366
     C     1.6699624260    3.6046746056   -0.5720571917
     C     3.0046904713    4.0204622566   -0.3854373623
     C     3.9653158939    3.0665768518   -0.0450072283
     C     3.6263831179    1.7114200173    0.1139061381
     O     0.0717815683    1.7867032794   -0.5803636873
     H     0.8957683682    4.3220208587   -0.8385706746
     H     4.9992875035    3.3765285367    0.1007012723
     H     4.3785210295    0.9720383382    0.3784493006
     C     3.3739492017    5.4776147018   -0.5551261980
     H     2.8256553005    6.1253639508    0.1440242998
     H     3.1461326760    5.8445912056   -1.5662293368
     H     4.4443350773    5.6404260142   -0.3813576633
