11
-2.0375570010208316e+03 frame 26   xyz file generated by TeraChem
    Mn    -0.1301934661    0.1510592243   -0.0082700679
     N     1.9258025735   -0.1394304268    0.2843890113
     C     3.0796413526   -0.2982267870    0.4867102440
     S     4.6859491957   -0.5179675267    0.7657964554
     N    -0.7766088950   -1.2694352100   -1.4096190714
     C    -1.1650047905   -2.0830357966   -2.1743582680
     S    -1.7058781982   -3.2137104499   -3.2395895435
     N    -0.4376627139    2.0347844053   -0.8668034857
     C    -0.6302723065    3.1120860234   -1.3143664897
     S    -0.8966830795    4.6100518547   -1.9380161992
    Cl    -1.2477479546   -0.1415339621    2.1028299863
