53
-1.2340296919335899e+03 frame 65   xyz file generated by TeraChem
    Cr     0.2967123723   -0.2820186302   -0.2968482290
     N    -0.2564959447   -2.0123509142   -1.3308370963
     N    -1.4493583676   -0.8128208835    0.7226963189
     C     0.3242117402   -2.4899994579   -2.4500105199
     H     1.2425778968   -2.0037789625   -2.7638752108
     C    -0.2056852608   -3.5381392271   -3.1873561453
     H     0.3085981496   -3.8753130179   -4.0815694755
     C    -1.4037798927   -4.1405124546   -2.7763254565
     C    -2.0103252911   -3.6233489123   -1.6220570661
     H    -2.9548774380   -4.0397111878   -1.2918717511
     C    -3.0962893913   -2.5373314825    0.9881213182
     H    -3.5293732978   -3.4698333335    0.6458493116
     C    -3.6086366251   -1.9323660565    2.1440800117
     C    -2.9864380870   -0.7483517676    2.5695722095
     H    -3.3205733718   -0.2346290920    3.4654297017
     C    -1.9241323290   -0.2324041070    1.8443229950
     H    -1.4231665463    0.6744569644    2.1680696953
     C    -1.4279549614   -2.5727951861   -0.9173636471
     C    -2.0286830106   -1.9693183630    0.2958354405
     C    -4.7684795066   -2.5209092725    2.8949479463
     C    -2.0069470182   -5.2915723299   -3.5289858390
     H    -1.7969277105   -5.2238085343   -4.6000438099
     H    -3.0894331167   -5.3457553360   -3.3854203642
     H    -1.5785140529   -6.2374112992   -3.1714060354
     H    -5.0050133240   -3.5313555351    2.5534733689
     H    -5.6625437173   -1.8994981777    2.7572002901
     H    -4.5638652036   -2.5541634072    3.9702018810
     N     2.3475705943   -0.0698031524   -0.6301533451
     N     0.5265002939    1.7668064280    0.0404095919
     C     3.2345963469   -1.0628231447   -0.8445195155
     H     2.8169388417   -2.0553364248   -0.9776330927
     C     4.6044603689   -0.8564747974   -0.8840215983
     H     5.2668149504   -1.6983772725   -1.0578576509
     C     5.1172547602    0.4341879086   -0.6861505860
     C     4.1879352217    1.4571261323   -0.4467275713
     H     4.5495629639    2.4609410762   -0.2572012354
     C     2.0707664726    3.5938729972   -0.1316290549
     H     3.0789448849    3.9466675364   -0.3138095922
     C     1.0562099169    4.5312851764    0.1065011226
     C    -0.2401989240    4.0295940262    0.3008377480
     H    -1.0757057802    4.6993140410    0.4780257347
     C    -0.4593757330    2.6625195293    0.2556521663
     H    -1.4558619000    2.2538198924    0.3870068905
     C     2.8200932457    1.1919938291   -0.4256341720
     C     1.7924522712    2.2280892156   -0.1593842123
     C     1.3359911203    6.0064618079    0.1424813766
     C     6.5927996470    0.7093628905   -0.7358253098
     H     7.1644741671   -0.1050679820   -0.2808885613
     H     6.8491699052    1.6435297354   -0.2298266131
     H     6.9234907525    0.7938358416   -1.7794556323
     H     2.3864607586    6.2284665432   -0.0583934324
     H     1.0793725935    6.4222153286    1.1242210881
     H     0.7237778432    6.5341913819   -0.5979730257
