21
-1.5316114335549451e+03 frame 189   xyz file generated by TeraChem
    Cr     0.1359321509    0.6029718021   -0.2084066320
     C     4.8056253526   -1.4060710855    0.6471292167
     C     4.6519683469   -0.1404017047    0.0825560889
     C     3.3216869141    0.4127769435   -0.1054740075
     N     2.1844261752   -0.2334262586    0.2355222952
     C     2.3448812845   -1.4581505192    0.7854045255
     C     3.6395393936   -2.0799058757    1.0083043111
     H     5.7890104059   -1.8465159969    0.7994865527
     H     5.5062101447    0.4602051712   -0.2278126703
     H     3.2291863007    1.4058207537   -0.5419904963
     H     1.4504357448   -2.0042329377    1.0808700968
     H     3.6621544310   -3.0717286427    1.4584829395
     S     0.3901974667   -0.5245115692   -2.5115249588
     H     0.0902902456    0.4463191142   -3.4055993932
     H    -0.7593094421   -1.2155902396   -2.6901491287
     S    -2.1605047575    1.6534358958   -0.6010515236
     H    -2.5255505233    1.3883276215   -1.8754816423
     H    -3.0086634771    0.7587305953   -0.0390051395
     S    -0.1880738918    1.7409354603    2.0645321112
     H    -0.1794823366    3.0547562692    1.7380749832
     H     1.0012189547    1.7704380560    2.7050645928
