46
-1.5138825630639662e+03 frame 70   xyz file generated by TeraChem
    Fe    -0.0321118358    0.0716598561    0.1036051916
     C     4.6291089145   -0.6939483455    0.7814574094
     C     4.0485964136    0.5668613756    0.9475951567
     C     2.6772289122    0.7021535272    0.7729088782
     N     1.8849776488   -0.3490875846    0.4389701116
     C     2.4502302729   -1.5694926972    0.2682957347
     C     3.8130518808   -1.7766493853    0.4399807643
     H     5.6987774898   -0.8293695052    0.9124334769
     H     4.6449281824    1.4356956990    1.2065060903
     H     2.1933703571    1.6689668148    0.8922054909
     H     1.7874433936   -2.3799044823   -0.0148600406
     H     4.2254541406   -2.7702427784    0.2974491593
     C     0.0724694348   -2.0023813577   -4.1828205544
     C     0.9588184992   -0.9646777950   -3.8832241952
     C     0.9205795000   -0.3856124222   -2.6207445175
     N     0.0353939646   -0.7903682808   -1.6774704056
     C    -0.8282379929   -1.7953263501   -1.9662830003
     C    -0.8326741974   -2.4248759419   -3.2048607551
     H     0.0874119142   -2.4753437838   -5.1604790621
     H     1.6785143461   -0.6072095303   -4.6124797348
     H     1.6036508866    0.4119847037   -2.3487182613
     H    -1.5237553275   -2.0920627443   -1.1862108622
     H    -1.5362080047   -3.2289628216   -3.3945162717
     C    -2.7500061813    3.8319217282   -0.9780610369
     C    -2.7150525180    2.7541668100   -1.8670145791
     C    -1.9809861823    1.6244077318   -1.5330502560
     N    -1.3054236429    1.5216636719   -0.3584569959
     C    -1.3554301486    2.5694282741    0.5100191474
     C    -2.0526745049    3.7343381543    0.2314397727
     H    -3.3092020121    4.7308197549   -1.2209747717
     H    -3.2436524622    2.7876648574   -2.8140054439
     H    -1.9216846649    0.7763711790   -2.2032697688
     H    -0.8127293294    2.4575822848    1.4445939899
     H    -2.0505863193    4.5476968258    0.9495706776
     C    -1.8491580297   -1.2537374272    4.3626563633
     C    -2.6779353398   -0.8829053310    3.2717910692
     C    -2.0861875202   -0.4528777758    2.1001847765
     N    -0.7326852476   -0.3670733079    1.9334546788
     C     0.0617502667   -0.7352349992    2.9768331528
     C    -0.4421341601   -1.1662338829    4.1898448621
     S    -2.4313230105   -1.8063894060    5.8958037149
     H    -3.7609842422   -0.9211228585    3.3360451894
     H    -2.7017721057   -0.1552703388    1.2587423116
     H     1.1293196378   -0.6600179508    2.8203853053
     H     0.2434472924   -1.4245712237    4.9917533113
     H    -3.7579828485   -1.7453363727    5.6287131327
