25
-6.3398046703228590e+02 frame 62   xyz file generated by TeraChem
    Mn     0.0005028708    0.0017886165    0.0011687125
     C     2.7187533322   -1.3665945428    0.5565282127
     N     1.6949320278   -0.8500586916    0.3449485860
     C     3.9847442519   -2.0052592551    0.8146428202
     H     4.1123466331   -2.1596714646    1.8953654086
     H     4.8010834089   -1.3697164725    0.4406388060
     H     4.0194439085   -2.9779959790    0.3026781438
     C     0.4242690165   -0.4472470643   -3.0310683014
     N     0.2650131886   -0.2798503358   -1.8880528683
     C     0.6205952114   -0.6557187052   -4.4436131709
     H     1.6959041790   -0.6986620156   -4.6681355637
     H     0.1649977849    0.1701173997   -5.0085901663
     H     0.1496101375   -1.6035040394   -4.7443771499
     C    -2.7185154830    1.3679323691   -0.5559126800
     N    -1.6940847657    0.8531855764   -0.3429177270
     C    -3.9859212709    2.0022452052   -0.8175161235
     H    -3.9987509689    2.4022290175   -1.8413874894
     H    -4.1449202581    2.8244156441   -0.1050461528
     H    -4.7952696242    1.2651659803   -0.7067746621
     C    -0.4236134841    0.4498433161    3.0334281193
     N    -0.2641162823    0.2831213910    1.8903446217
     C    -0.6200753280    0.6575523655    4.4460611282
     H    -1.6953503501    0.7042632496    4.6699852258
     H    -0.1456971841    1.6032255456    4.7481345608
     H    -0.1679906864   -0.1706494856    5.0104137519
