49
-1.4845387528483536e+03 frame 76   xyz file generated by TeraChem
    Fe     0.2171607614    0.1987607986   -0.0022288295
     C     4.5529655156   -1.4623262008    0.9419184422
     C     4.3222112452   -0.1946552880    0.3701573250
     C     3.0194508617    0.1929783753    0.1120746266
     N     1.9495243604   -0.6049075529    0.3975112502
     C     2.1691586158   -1.8301594748    0.9504680853
     C     3.4442214382   -2.2873869711    1.2300944055
     C     5.8780607419   -1.9028415800    1.2235218462
     H     5.1456598900    0.4717580680    0.1344866772
     H     2.8138451792    1.1673802515   -0.3271971624
     H     1.2981129938   -2.4416944781    1.1580926687
     H     3.5839446407   -3.2702803985    1.6687247408
     N     6.9605463037   -2.2641790167    1.4547526614
     C    -1.3628056904   -1.9756927723   -3.8624584910
     C    -0.0543279292   -2.1883259685   -3.3881244835
     C     0.3616199054   -1.5473365700   -2.2336273214
     N    -0.4573355872   -0.7000380325   -1.5460448305
     C    -1.7273257298   -0.4888452665   -1.9983717429
     C    -2.2065195527   -1.1049964383   -3.1392719399
     C    -1.8276256577   -2.6259169317   -5.0412417458
     H     0.6291427563   -2.8502302838   -3.9105727649
     H     1.3588743902   -1.7030798133   -1.8431029051
     H    -2.3500755827    0.1927586028   -1.4308148217
     H    -3.2217139183   -0.9102004707   -3.4706305361
     N    -2.2087131394   -3.1574327558   -6.0045896388
     C    -1.2625750980    4.6330325561   -0.7095398781
     C    -0.5972163835    3.8911651827   -1.7089402810
     C    -0.2849818499    2.5677875131   -1.4637994452
     N    -0.5759510978    1.9517953795   -0.2781342268
     C    -1.2260849851    2.6679597202    0.6846261512
     C    -1.5811552435    3.9921132389    0.5054590860
     C    -1.6103106497    5.9965355280   -0.9271129252
     H    -0.3382039391    4.3443641266   -2.6604482541
     H     0.2094669841    1.9713794140   -2.2254240301
     H    -1.4621143662    2.1525280378    1.6071146740
     H    -2.0996109650    4.5252575576    1.2959085215
     N    -1.8937670603    7.1119009597   -1.1055110379
     C    -2.0734531385   -1.2866099222    3.8100771363
     C    -2.5355396410   -1.6736230498    2.5371531575
     C    -1.8567660292   -1.2463611379    1.4073781200
     N    -0.7497688029   -0.4636520119    1.4985812463
     C    -0.2842942552   -0.0935661660    2.7243027928
     C    -0.9200115029   -0.4778715775    3.8913351320
     C    -2.7511692371   -1.7057253456    4.9912790104
     H    -3.4153362894   -2.3002557047    2.4296841600
     H    -2.1890760451   -1.5331132019    0.4180215359
     H     0.6147787488    0.5158739457    2.7573779001
     H    -0.5240195995   -0.1618754294    4.8513702819
     N    -3.3048083962   -2.0463456911    5.9570357313
