9
-1.1090153207015373e+03 frame 41   xyz file generated by TeraChem
    Mn    -0.1867744571   -0.1031611690   -0.1434962954
     N     1.7564542459    0.2471707512    0.1527416775
     C     2.9041926561    0.4578082471    0.3437704750
     S     4.4986475764    0.7541770372    0.6055409270
     N    -0.3035584526   -1.5127627199   -1.5530798696
     C    -0.3658940589   -2.3459633729   -2.3899687042
     S    -0.4574884555   -3.5022721913   -3.5525622489
     I    -1.5396576130    2.2027617835   -1.0581490659
     I    -1.1723384945   -1.1445347914    2.2803387890
