11
-4.5796551222922221e+02 frame 33   xyz file generated by TeraChem
    Co     0.4480401256   -0.4086999453   -0.4869879867
     N     2.2109292096    0.2317938280    0.1358232463
     H     2.1741026134    1.2495769714    0.1841062034
     H     2.4362425482   -0.1709364136    1.0443050901
     H     2.9526949074   -0.0290240792   -0.5132051078
     N    -1.2970522302   -1.1163792423   -1.0929629274
     H    -1.3599103688   -1.2092211557   -2.1057482945
     H    -1.3217998712   -2.0399211363   -0.6583015066
     H    -2.0886403880   -0.5550395604   -0.7829836434
     F     0.1879567379    1.1922557748   -1.2693789499
     F     0.7021303260   -2.0062571273    0.3241972754
