41
-1.1133098873081547e+03 frame 33   xyz file generated by TeraChem
    Fe     0.1844117345   -0.1870873154   -0.2279402236
     N    -0.7149541101   -1.5338406244   -1.5274027814
     N    -1.1617266586   -1.0901827975    1.0700862018
     C    -0.4360900327   -1.6975250253   -2.8282297253
     H     0.3398888763   -1.0661479940   -3.2514504766
     C    -1.1032173523   -2.6368752557   -3.6301582581
     H    -0.8409097672   -2.7315383202   -4.6792738375
     C    -2.0953035849   -3.4306532576   -3.0507001120
     H    -2.6318788677   -4.1674672318   -3.6413124925
     C    -2.3901990725   -3.2651024574   -1.6982074514
     H    -3.1586084206   -3.8775114179   -1.2423653723
     C    -2.8885264039   -2.7704478338    1.2380296540
     H    -3.4978857679   -3.5406011646    0.7810454478
     C    -3.0568808419   -2.4763978418    2.5903662157
     H    -3.7929518569   -3.0154240752    3.1796626303
     C    -2.2669702843   -1.4819956480    3.1711275518
     H    -2.3637824630   -1.2198481378    4.2200874928
     C    -1.3282960656   -0.8121113529    2.3706763769
     H    -0.6996339721   -0.0345761941    2.7950755470
     C    -1.6892085273   -2.3076805714   -0.9426876109
     C    -1.9322777139   -2.0663776551    0.4839774871
     N     2.2316408670    0.0074065466    0.0629327040
     N     0.3796007997    1.8607859705   -0.5121423877
     C     3.1025277429   -0.9703015810    0.3500425973
     H     2.6998854468   -1.9749374634    0.4373013264
     C     4.4734446037   -0.7314710661    0.5323087346
     H     5.1375987062   -1.5584192982    0.7634435178
     C     4.9484682434    0.5758381510    0.4099552472
     H     6.0030402300    0.7981869005    0.5442281986
     C     4.0482755301    1.5977323927    0.1114344533
     H     4.4114384310    2.6135662654    0.0147021575
     C     1.9677471800    3.6798537332   -0.5372254589
     H     2.9823041368    4.0436903891   -0.4302033120
     C     0.9469116762    4.5805466665   -0.8380103188
     H     1.1686189550    5.6362779951   -0.9639542312
     C    -0.3586037932    4.1043592332   -0.9737730804
     H    -1.1844960356    4.7689515014   -1.2074133731
     C    -0.5970551669    2.7320240537   -0.8016680301
     H    -1.6004799379    2.3287440168   -0.8994377197
     C     2.6839797298    1.3001054019   -0.0604790374
     C     1.6707581339    2.3141087672   -0.3763606192
