46
-1.1708231925403888e+03 frame 33   xyz file generated by TeraChem
    Cr    -0.1966014580   -0.3847601826    0.0958272568
     C     4.5254532913    0.2641300511   -0.3080889084
     C     3.6666439191    0.4341569220   -1.4136520314
     C     2.3057607356    0.2577444302   -1.2473838531
     N     1.7605270190   -0.0698878604   -0.0381875645
     C     2.5885843598   -0.2288936288    1.0358254352
     C     3.9596992982   -0.0764477972    0.9357933005
     C     5.9333688221    0.4342789219   -0.4476694013
     H     4.0618343121    0.6935696768   -2.3904976539
     H     1.6291783639    0.3709999495   -2.0866405785
     H     2.1249597977   -0.4853073055    1.9793533500
     H     4.5829915787   -0.2178685045    1.8128159621
     N     7.0831646128    0.5747479830   -0.5623931089
     C    -1.0878500135   -2.7319515178   -4.0005187414
     C    -0.3351537398   -3.2759894529   -2.9528222850
     C    -0.0661225947   -2.4854865373   -1.8464105831
     N    -0.5198660318   -1.2039478334   -1.7375223814
     C    -1.2472439233   -0.6792243210   -2.7611067077
     C    -1.5446791248   -1.4131334158   -3.9001334867
     H    -1.3102862135   -3.3261645049   -4.8824850996
     H     0.0435664331   -4.2920839760   -2.9952401945
     H     0.5409416388   -2.8721521954   -1.0276539686
     H    -1.5806753586    0.3457382332   -2.6440873952
     H    -2.1270156360   -0.9574260031   -4.6945885121
     C    -2.3237478582    3.8342452579   -0.3454385112
     C    -0.9253017558    3.8030536610   -0.3713882871
     C    -0.2707483351    2.5838757704   -0.2598912228
     N    -0.9647292162    1.4228792494   -0.1296511881
     C    -2.3251212517    1.4470650502   -0.0992704570
     C    -3.0332157708    2.6351700538   -0.2063242139
     H    -2.8543197548    4.7787358458   -0.4301668178
     H    -0.3415595349    4.7122175400   -0.4765893490
     H     0.8092665801    2.5075342411   -0.2710586589
     H    -2.8455796690    0.4965108088    0.0116803639
     H    -4.1181457211    2.6164870755   -0.1787769063
     C    -1.0992215477   -1.1699335273    4.7393763726
     C    -0.7555560764    0.1383113208    4.3748527320
     C    -0.4593669158    0.4158923706    3.0489443508
     N    -0.4882750854   -0.5510562333    2.0930127239
     C    -0.8214344130   -1.8238713823    2.4522019777
     C    -1.1336300804   -2.1679993223    3.7589504911
     H    -1.3380021394   -1.4079249004    5.7723110334
     H    -0.7219410597    0.9357628810    5.1103861135
     H    -0.1992903015    1.4157823257    2.7192457203
     H    -0.8357459386   -2.5824460808    1.6673437621
     H    -1.3955835304   -3.1929945053    4.0007805401
