23
-5.4305851618290080e+02 frame 50   xyz file generated by TeraChem
    Fe     0.0603668558   -0.2532925357   -0.0682928002
     C     3.0145658415    0.2038112352    0.6796048266
     O     1.8919041575    0.0449870985    0.1656993788
     H     3.1277176658    0.4821616214    1.7369726256
     H     3.9015397712    0.0640689734    0.0438505559
     C    -1.6755792132   -2.0217117753   -1.9523333021
     O    -0.9117633984   -1.3392836911   -1.2448087359
     H    -2.7665203951   -1.9378228849   -1.8477805953
     H    -1.2362862399   -2.7116192009   -2.6876644835
     C    -0.6556689535    2.6430459073    0.2383300353
     N    -0.4348841044    1.5140195772   -0.7349555890
     H     0.3296087267    1.7709340789   -1.3802930549
     H    -1.2721197034    1.4076869176   -1.3255980331
     H     0.2283928885    2.7806033456    0.8640574081
     H    -1.5520788561    2.4532870863    0.8305063001
     H    -0.8129868219    3.5615807713   -0.3456113422
     C    -0.5284178020   -1.7409360365    2.2749742932
     N    -0.8203808922   -0.3987252424    1.6515031919
     H    -0.5088938194    0.3583495036    2.2773581270
     H    -1.8366590622   -0.2748369886    1.5395666649
     H     0.5445677836   -1.8530155044    2.4484334780
     H    -0.9207621155   -2.5400420848    1.6420519287
     H    -1.0431784489   -1.7827948645    3.2477885281
