48
-2.3103165464330691e+03 frame 109   xyz file generated by TeraChem
    Fe    -0.0741402889   -0.0026192275    0.0359206443
     C     4.6749284021    0.7741487137    0.7071340647
     C     3.8617164944    1.7868577021    0.1912607356
     C     2.5099949844    1.5325091841    0.0053810176
     N     1.9457170276    0.3355923306    0.3073866515
     C     2.7419085630   -0.6427877234    0.8123667585
     C     4.1014110344   -0.4614178309    1.0224677335
     H     5.7360867019    0.9449995543    0.8626689474
     H     4.2673848688    2.7603798261   -0.0628889856
     H     1.8467014861    2.2972601660   -0.3867177134
     H     2.2609947302   -1.5876914603    1.0498085360
     H     4.6975738267   -1.2724667692    1.4272740835
     C    -0.7280542577   -2.2929688252   -4.2400497060
     C     0.5666688792   -2.1377387994   -3.6962433643
     C     0.7200833764   -1.4753439306   -2.4922058839
     N    -0.3212985454   -0.9543661325   -1.7902974319
     C    -1.5689582406   -1.1000001006   -2.3172106210
     C    -1.8131656951   -1.7488583867   -3.5102834796
     S    -1.0811140805   -3.1009405970   -5.7411761299
     H     1.4456444203   -2.5253597164   -4.2008836805
     H     1.7077777240   -1.3436624766   -2.0631836433
     H    -2.3919743295   -0.6713603926   -1.7521303662
     H    -2.8320523005   -1.8300532530   -3.8760860201
     H     0.1878519317   -3.4319868924   -6.0662617000
     C    -2.4112419065    4.2981170763   -0.1215023129
     C    -1.7446097110    3.7750131836   -1.2534627304
     C    -1.1194993976    2.5460194807   -1.1595242785
     N    -1.1010766563    1.8027958670   -0.0202750730
     C    -1.7497319896    2.3022533867    1.0652160165
     C    -2.4032053636    3.5188874915    1.0596703129
     S    -3.2436033444    5.8265719555   -0.0815738894
     H    -1.7158166081    4.3127577777   -2.1955468596
     H    -0.6118453859    2.1256605677   -2.0228346783
     H    -1.7433584895    1.6941997492    1.9640618602
     H    -2.9008119990    3.8621045861    1.9613739302
     H    -2.9927283839    6.1976161747   -1.3563668455
     C    -1.5721253721   -2.6513904431    3.8595368301
     C    -1.9349070716   -3.0180179578    2.5437420492
     C    -1.5169938828   -2.2367687406    1.4828951317
     N    -0.7627147772   -1.1159291554    1.6346495406
     C    -0.4074369026   -0.7661715982    2.9030585477
     C    -0.7826766300   -1.4865608318    4.0178976480
     S    -2.0233199124   -3.5311204173    5.2925363597
     H    -2.5360039151   -3.8995824764    2.3462169640
     H    -1.7897000940   -2.5078533456    0.4679882469
     H     0.2140427876    0.1185573848    3.0107644652
     H    -0.4627338268   -1.1553638271    5.0009703793
     H    -2.7334883921   -4.5053769301    4.6832862552
