40
-2.5163273031495742e+03 frame 78   xyz file generated by TeraChem
    Cr     0.2044732037   -0.2355804802   -0.3190649474
     S     2.4596957190    0.1886094497   -0.6356877134
     C     2.4494951973    1.7257621243    0.0727420975
     N     2.3714655960    2.7593557407    0.6135565930
     C    -2.9310972878   -3.2499453126   -2.4674430645
     C    -1.5748864402   -3.5577220574   -2.2206196192
     C    -0.7839521778   -2.6422333066   -1.5571467209
     N    -1.2424332410   -1.4369175020   -1.1226641921
     C    -2.5475059643   -1.1361240846   -1.3578890744
     C    -3.4035350204   -1.9975544235   -2.0090333318
     S    -4.0481766614   -4.3013506841   -3.2934515087
     H    -1.1377922283   -4.4967216625   -2.5429993390
     H     0.2637160556   -2.8757602014   -1.3650900073
     H    -2.8904721445   -0.1690751753   -1.0080379369
     H    -4.4351572195   -1.7002185090   -2.1677581685
     H    -3.1844582811   -5.3109062141   -3.5277724056
     C    -1.4761153633    4.0491761060   -1.6559798931
     C    -0.7433653261    3.2326530980   -2.5451693862
     C    -0.3110178645    1.9893434085   -2.1350585173
     N    -0.5704890688    1.4989139209   -0.8927503068
     C    -1.2804926542    2.2741242551   -0.0273506006
     C    -1.7428368208    3.5251111535   -0.3697723024
     S    -2.0635357667    5.6441515902   -2.0320061045
     H    -0.4970290882    3.5636800846   -3.5483272695
     H     0.2704877674    1.3609501829   -2.8013100274
     H    -1.4669370954    1.8678908842    0.9606421141
     H    -2.2989981670    4.1002181225    0.3633481358
     H    -1.5742074910    5.7118263516   -3.2874932880
     C    -0.3848162063   -0.9517330701    4.3957430154
     C    -1.0562936991   -1.7660734222    3.4560847485
     C    -0.9139202557   -1.5199721023    2.1080257680
     N    -0.1329724187   -0.5124416640    1.6212696992
     C     0.5137924217    0.2858048703    2.5236362760
     C     0.4091749403    0.1008433173    3.8831114052
     S    -0.4707916584   -1.1525992380    6.1208622749
     H    -1.6890660704   -2.5888942828    3.7713923168
     H    -1.4267279446   -2.1356967647    1.3795278017
     H     1.1260885793    1.0901341410    2.1273361008
     H     0.9523533199    0.7676582597    4.5451082222
     H    -1.2880606834   -2.2262396353    6.1239702060
