22
-2.2429984669992091e+03 frame 48   xyz file generated by TeraChem
    Fe     0.1269382292    0.2349665094   -0.0809328153
     N     1.9412883038   -0.0234485717    0.1918381919
     C     3.0098769824   -0.4438743190    0.5662581193
     S     4.4557941894   -0.9649493439    1.0338026839
     N    -0.4710387508   -0.9899804667   -1.2982164367
     C    -1.3627358233   -1.6545464831   -1.7757857701
     S    -2.4653481080   -2.5838601199   -2.4785482298
     N    -0.9809748812    1.6909082234   -0.3192721798
     C    -1.9441759998    2.3241980583   -0.6843964210
     S    -3.1916124029    3.2324175494   -1.1250388922
     C    -1.2340644271   -1.3030511477    4.1751618749
     C    -1.4577485262    0.0341653934    3.7903600969
     C    -1.0660369457    0.4606696474    2.5249981686
     N    -0.4644874333   -0.3726810011    1.6373793713
     C    -0.2417090030   -1.6644314996    1.9984434476
     C    -0.6112039462   -2.1596515152    3.2424736205
     S    -1.6885867158   -1.9662900476    5.7558336312
     H    -1.9364287398    0.7485082866    4.4601499281
     H    -1.2315877824    1.4835279720    2.1924005397
     H     0.2452673720   -2.2939263465    1.2560272327
     H    -0.4098261150   -3.2044772730    3.4785183388
     H    -2.2145446261   -0.8218454718    6.2619965319
