9
-2.0477125933553739e+03 frame 215   xyz file generated by TeraChem
    Co     1.4693586332   -0.7168430059    1.7669982699
     S     3.0842937954    0.4430805156   -2.0476046652
     C     3.5274889497   -0.4228290851   -3.3989646723
     N     3.8352927326   -1.0150010532   -4.3693016758
     S     2.4216398219   -1.7045888513   -0.1289962084
     C     3.9142221444   -2.1781785660    0.5123086642
     N     4.9538549047   -2.5189455151    0.9278293836
    Cl     1.1284900666    1.4305295603    1.3992827111
    Cl     0.8438546745   -2.2315670485    3.2428868385
