9
-1.3802095774567222e+03 frame 54   xyz file generated by TeraChem
    Fe     0.1541095723   -0.2934398176   -0.1938066290
     O     2.1218771365   -0.7236973681    0.0408411092
     N     4.0931759272    0.1525641920    1.1645067519
     C     3.1143375145   -0.2453829000    0.6315497378
     O    -0.1286738215   -1.2022180341   -1.9782222356
     N    -1.9039501504   -1.9099472522   -3.4829778483
     C    -1.0641069658   -1.5529488400   -2.7296550843
    Cl    -0.2637387010    2.0211829907   -0.5689705982
    Cl    -0.8913222565   -1.2882350100    1.7018049345
