53
-1.4204354065645641e+03 frame 112   xyz file generated by TeraChem
    Fe    -0.0070730807   -0.0029281642    0.0161188144
     C     1.5547626462    0.8032251245    0.8493290087
     N     2.5157348443    1.2623152249    1.3311174111
     C     3.6544263198    1.7927020664    1.8987413653
     C     3.8120002099    3.1967143059    1.9362372310
     C     4.9586476198    3.7174657796    2.5120223956
     C     5.9402384706    2.8529381941    3.0355631061
     C     5.7719111270    1.4550700654    2.9873484438
     C     4.6286741642    0.9133090312    2.4244055172
     H     3.0406882875    3.8423184324    1.5306912050
     H     5.1014699319    4.7918929056    2.5604354123
     H     6.5392885495    0.8024917746    3.3903879504
     H     4.4791817689   -0.1597211082    2.3715283252
     H     6.8381706522    3.2696124890    3.4818501190
     C    -1.5689732015   -0.8089782634   -0.8169193867
     N    -2.5299004849   -1.2681129739   -1.2987707998
     C    -3.6686742441   -1.7984387249   -1.8662862834
     C    -3.8270269399   -3.2024033991   -1.9024002213
     C    -4.9737403197   -3.7231213625   -2.4780675608
     C    -5.9546637939   -2.8586106131   -3.0028712341
     C    -5.7855403459   -1.4607962251   -2.9560392810
     C    -4.6422205887   -0.9190508312   -2.3932396123
     H    -3.0562178327   -3.8480098856   -1.4959102747
     H    -5.1171355375   -4.7975164936   -2.5254216372
     H    -6.5523938033   -0.8082087859   -3.3600547961
     H    -4.4921639125    0.1539538808   -2.3414470502
     H    -6.8526641084   -3.2752455353   -3.4490520070
     C    -0.0124585571    1.3686964188   -1.3630144174
     N     0.0096751223    2.1683860755   -2.2153988201
     C     0.0383154495    3.1044865641   -3.2265558694
     C    -0.3617277108    2.7193308527   -4.5266319755
     C    -0.3214773051    3.6651305490   -5.5372463747
     C     0.1030299259    4.9788105053   -5.2572867566
     C     0.4944812331    5.3498873963   -3.9558484006
     C     0.4695286750    4.4178157337   -2.9321828446
     H    -0.6797373104    1.7003665050   -4.7190915714
     H    -0.6156526176    3.3940748669   -6.5457876896
     H     0.8155403641    6.3667870649   -3.7559746994
     H     0.7626199783    4.6808223359   -1.9217068423
     H     0.1292198396    5.7149778958   -6.0550605111
     C    -0.0014346662   -1.3745218582    1.3951983113
     N    -0.0235535591   -2.1741294396    2.2476559127
     C    -0.0523773777   -3.1103822655    3.2586969660
     C    -0.4856385503   -4.4230706318    2.9645576830
     C    -0.5107980782   -5.3552560686    3.9881179286
     C    -0.1175502530   -4.9849030522    5.2892220115
     C     0.3089894493   -3.6718410572    5.5689385024
     C     0.3494812649   -2.7259480917    4.5584242777
     H    -0.7801006119   -4.6855449114    1.9543459892
     H    -0.8334155541   -6.3716930662    3.7884128526
     H     0.6045555861   -3.4013266155    6.5772161245
     H     0.6690576170   -1.7074436626    4.7507090830
     H    -0.1439197300   -5.7211561642    6.0869079056
