38
-1.1364167574826249e+03 frame 66   xyz file generated by TeraChem
    Mn    -0.0074920407   -0.0035183234   -0.1271840570
     C     4.7715196163    0.8263622425    0.6726381791
     C     3.9590877762    1.7868694115    0.0463164663
     C     2.6183600549    1.4991326534   -0.1542999163
     N     2.0537844530    0.3255102832    0.2264479011
     C     2.8425881303   -0.5977346135    0.8335051354
     C     4.1916856217   -0.3905041138    1.0719634656
     C     6.1603689385    1.0812011990    0.8990372326
     H     4.3686846416    2.7375162265   -0.2766387050
     H     1.9664294554    2.2234476306   -0.6334033601
     H     2.3708950258   -1.5291104093    1.1338083851
     H     4.7842257719   -1.1558289338    1.5610321493
     N     7.2898264203    1.2876106209    1.0813717660
     C    -0.8003175092   -3.5216867590   -3.4746383573
     C     0.5068578962   -3.1402407481   -3.1271976377
     C     0.6824002202   -2.1407001281   -2.1833250450
     N    -0.3557565780   -1.5109055812   -1.5792798703
     C    -1.6163176717   -1.8825787747   -1.9192919719
     C    -1.8806062931   -2.8725222367   -2.8518404147
     C    -1.0272577943   -4.5484434530   -4.4438013481
     H     1.3661990986   -3.6154436833   -3.5872078364
     H     1.6804869879   -1.8241568027   -1.8966190333
     H    -2.4330201260   -1.3633116677   -1.4260059211
     H    -2.9040957364   -3.1388019399   -3.0917840560
     N    -1.2117918918   -5.3818546325   -5.2330699745
     C    -2.3779153403    4.0994954436   -1.4747858049
     C    -1.9715510488    3.1434676877   -2.4216460137
     C    -1.3062824917    2.0105129776   -1.9820704256
     N    -1.0254761941    1.7827258433   -0.6739590423
     C    -1.4199261576    2.7093092767    0.2346643304
     C    -2.0911926772    3.8692198534   -0.1183401764
     C    -3.0687562743    5.2830047598   -1.8840169099
     H    -2.1733740192    3.2850173269   -3.4776031938
     H    -0.9808935645    1.2546031789   -2.6910031417
     H    -1.1900091667    2.5076297889    1.2764285274
     H    -2.3894919748    4.5818975739    0.6426167450
     N    -3.6292802864    6.2452791069   -2.2176745683
     I    -1.0777603403   -1.0157407961    2.4201839857
