14
-7.7484345176374347e+02 frame 65   xyz file generated by TeraChem
    Co     0.1144030631   -0.0495789971   -0.1087638907
     N     1.9314004700    0.5243782797    0.5437717834
     H     1.8205024072    0.9826055329    1.4531254643
     H     2.4409930737   -0.3399885800    0.7478680185
     H     2.5315168153    1.1180961924   -0.0320148182
     N    -1.3220051376   -1.1658978225   -0.9872559267
     H    -1.7604060285   -0.8842233946   -1.8661143192
     H    -0.9164863993   -2.0957647872   -1.1228943101
     H    -2.0619775528   -1.3025823367   -0.2929442274
     N    -0.0923454429    1.4836002706   -1.4015188354
     H     0.3967184997    2.3331946328   -1.1109431335
     H     0.2584139659    1.2578955224   -2.3362307732
     H    -1.0705426244    1.7589069464   -1.5213951902
    Cl     0.1582391669   -1.6078222822    1.4681404350
