25
-6.5341322925953318e+02 frame 29   xyz file generated by TeraChem
    Fe     0.2320501379   -0.0938036957    0.3784828094
     C     3.2217736737    0.3023528997   -0.0351629380
     N     2.0650235511    0.1673142107    0.0703767503
     C     4.6465692527    0.4637613811   -0.1476119279
     H     5.0941307431    0.4865853107    0.8583078596
     H     4.8747251327    1.4083170377   -0.6638129558
     H     5.0741117510   -0.3770768871   -0.7136093777
     C    -0.4896889347   -2.0373469524   -1.7879172075
     N    -0.2098911537   -1.2775010134   -0.9501039243
     C    -0.8294669003   -2.9869664255   -2.8185357228
     H     0.0892094858   -3.3791149785   -3.2784197767
     H    -1.4379821076   -2.4915189037   -3.5894400208
     H    -1.4017811082   -3.8179441135   -2.3815693093
     C    -0.8319334564    2.5761230226   -0.4751519520
     N    -0.4166266502    1.5371744251   -0.1504032563
     C    -1.3381219743    3.8683197648   -0.8666236675
     H    -0.9172908194    4.1509394825   -1.8424086310
     H    -1.0497756693    4.6188184023   -0.1156536052
     H    -2.4347547875    3.8301518779   -0.9382949553
     C    -1.7507696856   -0.9007601559    2.5288365128
     N    -1.0349087561   -0.5857926900    1.6606162897
     C    -2.6204736592   -1.2905456219    3.6069842618
     H    -3.6693172826   -1.2114211098    3.2826492487
     H    -2.4582337012   -0.6296403048    4.4715697667
     H    -2.4086587102   -2.3302597966    3.8978415579
