38
-2.5030897799528275e+03 frame 52   xyz file generated by TeraChem
    Mn    -0.0728103287    0.2505571433   -0.1893345092
     C     4.5580000894   -0.3119278415    0.6626903905
     C     4.0916347891    0.7093607249   -0.1950507393
     C     2.7408700007    0.8285468966   -0.4445676901
     N     1.8180936551   -0.0108563838    0.1008469363
     C     2.2560612283   -0.9980024612    0.9356129932
     C     3.5897137215   -1.1747933145    1.2271894274
     S     6.2298758527   -0.5722729551    1.0733660791
     H     4.7734108095    1.4128873597   -0.6607610719
     H     2.3635026638    1.6134982909   -1.0918723429
     H     1.4986245084   -1.6368727212    1.3762131291
     H     3.8784177031   -1.9741328554    1.9020322841
     H     6.7407751205    0.4439784897    0.3476339425
     C    -1.5029336025   -3.1126515567   -3.2221214209
     C    -0.1269844619   -2.8210011648   -3.0863201771
     C     0.2804675261   -1.8175287611   -2.2334815280
     N    -0.5969925449   -1.0712779197   -1.5060426900
     C    -1.9294075080   -1.3442803643   -1.6337508584
     C    -2.4071694544   -2.3337546682   -2.4613856520
     S    -2.1533818465   -4.3570168471   -4.2497531661
     H     0.6251299800   -3.3755288534   -3.6372788907
     H     1.3324433995   -1.5858428427   -2.1137640854
     H    -2.6078354438   -0.7488003740   -1.0306660474
     H    -3.4769210651   -2.5088814083   -2.5117558805
     H    -0.9766026306   -4.8055750099   -4.7339014262
     C    -1.3473427550    4.5636161332   -1.6991480102
     C    -1.2351039296    3.4768089669   -2.5962889437
     C    -0.8469799091    2.2405279966   -2.1273462202
     N    -0.5567488542    2.0121433536   -0.8153220572
     C    -0.6639524143    3.0547950896    0.0607408246
     C    -1.0450718932    4.3147845323   -0.3394316810
     S    -1.8330856141    6.1717407368   -2.1516761276
     H    -1.4544408529    3.5904446230   -3.6526058158
     H    -0.7650968878    1.3940833038   -2.8015930881
     H    -0.4438908473    2.8419597633    1.1007295423
     H    -1.1176791787    5.1029100799    0.4030430928
     H    -2.0128611951    5.9282643587   -3.4665824288
    Cl    -1.0296745906   -0.0217620661    1.7032565932
