10
-4.9952531537504274e+02 frame 47   xyz file generated by TeraChem
    Mn    -0.5629439032    0.0211450039    0.1971928384
     O     1.8491427358    0.0026299557    0.1538846980
     N     3.9002513816   -0.3850579291   -1.0928930344
     C     2.8871866680   -0.1991409132   -0.4934626809
     O    -1.1424733068   -1.3684849250   -1.1313014967
     H    -0.3878699722   -1.4310054498   -1.7396579604
     O    -0.8504739647    1.9611328544   -0.2293228342
     H     0.0596844334    2.3010252051   -0.2664110549
     O    -0.8518658671   -0.3792667947    2.1405114404
     H     0.0544556394   -0.5230344387    2.4614676545
