37
-9.4428466537569329e+02 frame 81   xyz file generated by TeraChem
    Fe     0.0688180140    0.0478367856   -0.0603668390
     C     4.7640678767   -0.6511303966    0.7122535673
     C     4.0812703494    0.4288944533    1.2763230004
     C     2.7243987693    0.5726944987    1.0201053292
     N     2.0368327039   -0.2902345405    0.2301659245
     C     2.7062724141   -1.3312250703   -0.3208786153
     C     4.0600689474   -1.5456204966   -0.0958235353
     H     5.8243590469   -0.7917179813    0.8987798288
     H     4.5878424548    1.1519420485    1.9066433119
     H     2.1630773051    1.3990071747    1.4463511817
     H     2.1318285849   -2.0007121318   -0.9509413427
     H     4.5494007392   -2.3997139403   -0.5516340820
     C     0.1147336395   -1.3160964164   -4.6257045827
     C     0.7746666128   -0.1521050992   -4.2259708441
     C     0.7472606540    0.2120561762   -2.8854356050
     N     0.0959021770   -0.5225527768   -1.9544824621
     C    -0.5445865172   -1.6511677102   -2.3425854415
     C    -0.5539086112   -2.0783364789   -3.6648002109
     H     0.1221285433   -1.6248543245   -5.6665708939
     H     1.3066223773    0.4689470517   -4.9387406969
     H     1.2560111794    1.1049414765   -2.5357310196
     H    -1.0556242573   -2.2149076009   -1.5669369521
     H    -1.0773419407   -2.9907961087   -3.9296822312
     C    -3.5483105672    3.1985977662   -0.3660458110
     C    -3.4782294437    2.1567703167   -1.2923759367
     C    -2.4416838272    1.2370206914   -1.1989361214
     N    -1.4998850677    1.3028921778   -0.2281119855
     C    -1.5772236229    2.3151829876    0.6736411852
     C    -2.5752458068    3.2779899821    0.6326443103
     H    -4.3445414036    3.9346879859   -0.4204074501
     H    -4.2146873071    2.0547739528   -2.0822318783
     H    -2.3547708776    0.4218945606   -1.9067238240
     H    -0.8094571604    2.3433803703    1.4403230075
     H    -2.5859118259    4.0714808771    1.3721188261
     O    -0.2243931688   -0.1368037861    1.9282690758
     H    -1.1168689461   -0.1728977765    2.3167996971
     H     0.3640415012   -0.6863998456    2.4761195603
