40
-1.5062475519277052e+03 frame 54   xyz file generated by TeraChem
    Cr    -0.0485513829    0.0243156543   -0.0965600541
     C     4.5948079846    0.8506525563    0.3476533454
     C     4.0654851374    0.5554685679   -0.9295838388
     C     2.7157420180    0.2963797895   -1.0563796269
     N     1.8741678863    0.3101307609    0.0215509115
     C     2.3805955613    0.6046903900    1.2583471810
     C     3.7214045777    0.8725830095    1.4564446074
     C     5.9814549887    1.1220644367    0.5109818109
     H     4.7071762028    0.5298977024   -1.8047860305
     H     2.2783068864    0.0595128678   -2.0206455172
     H     1.6896725442    0.6212799175    2.0982162380
     H     4.0890861383    1.0941229937    2.4534944992
     N     7.1175400999    1.3440178662    0.6434719411
     C    -1.1043926317   -3.6474243226   -2.9046193924
     C     0.1156689736   -3.6041715340   -2.1947693400
     C     0.4141151606   -2.4880146051   -1.4371317453
     N    -0.4364900473   -1.4197580266   -1.3550274910
     C    -1.6209535497   -1.4593007173   -2.0374457181
     C    -1.9812831039   -2.5439039316   -2.8137353983
     C    -1.4442961010   -4.7809343423   -3.6944287476
     H     0.8157715981   -4.4326305582   -2.2387106044
     H     1.3441492030   -2.4276422651   -0.8795385062
     H    -2.2738992814   -0.5958800206   -1.9512048853
     H    -2.9276782143   -2.5391843818   -3.3455247465
     N    -1.7222220295   -5.7092457915   -4.3410555758
     C    -1.6954661035    4.2135932655   -1.5708330669
     C    -1.1754563592    3.2796931056   -2.4954912659
     C    -0.7266780793    2.0573526866   -2.0372631380
     N    -0.7759142048    1.7171693573   -0.7132580653
     C    -1.2734381687    2.6209976423    0.1859048356
     C    -1.7377041808    3.8622803537   -0.2042746440
     C    -2.1640826464    5.4829708543   -2.0093606853
     H    -1.1263575928    3.5137349436   -3.5543320102
     H    -0.3224330140    1.3202562899   -2.7245082960
     H    -1.2939952392    2.3343604468    1.2335318748
     H    -2.1303155753    4.5510374624    0.5373670679
     N    -2.5470272149    6.5226936519   -2.3695457070
     S    -1.2182288302   -0.4272038240    2.1555534920
     H    -0.9137913821   -1.7128239498    2.4507088914
     H    -2.5077540499   -0.6762751393    1.8278352799
