11
-4.8028082969676984e+02 frame 42   xyz file generated by TeraChem
    Co     0.4723788706   -0.0001917563   -0.0487348238
     C     1.9136211303   -0.0498732556    1.3920933912
     N     2.6911562329   -0.1578586995    2.2610632068
     C    -0.0055325305   -1.3493668268   -1.5026101936
     N    -0.3769516335   -2.1519526547   -2.2703539757
     C     0.0544764189    1.9935856509   -0.1639211700
     N    -0.2911415952    3.1115593956   -0.2090223516
     N    -1.3095706010   -0.6145089994    1.0922274741
     H    -1.6632542694    0.1904099124    1.6046811564
     H    -2.0271003192   -0.9605880248    0.4592468017
     H    -1.0740283171   -1.3506681016    1.7546889206
