61
-1.5544393127756805e+03 frame 114   xyz file generated by TeraChem
    Fe    -0.2167817421    0.2632975619   -0.1831911832
     C     1.5477207081   -0.6224625872   -0.4290891317
     N     2.5690141993   -1.1548945229   -0.5724584273
     C     5.0386010711   -0.9642664435   -0.7980324706
     C     5.4540756559   -0.3846483902   -2.0034903638
     C     6.6231387786    0.4073513876   -2.0522769436
     C     7.3798496935    0.6142096263   -0.8996611763
     C     6.9745017672    0.0322915708    0.3022909910
     C     5.8032833295   -0.7585645515    0.3538480326
     H     4.8944069085   -0.5577399233   -2.9193218736
     H     6.9349669011    0.8384399812   -2.9984255986
     H     7.5641801872    0.1686361523    1.2034904759
     H     5.5217565386   -1.2257160086    1.2941721964
     H     8.2855400561    1.2105241042   -0.9397508386
     C     3.8228946991   -1.8711327279   -0.7614881364
     H     3.8823128286   -2.5912793545    0.0604900122
     H     3.7105702697   -2.4324883357   -1.6942397185
     C    -0.8732566569   -0.4476930548   -1.9231001166
     N    -1.2224071061   -0.8689984723   -2.9463197728
     C    -2.8474717707   -2.2615193629   -4.2131067606
     C    -2.7398126640   -3.6281711118   -3.9232209132
     C    -3.8812945108   -4.4586206093   -3.9550214257
     C    -5.1274392726   -3.9266354827   -4.2833858569
     C    -5.2384590204   -2.5672091797   -4.5803411737
     C    -4.0978147036   -1.7333390763   -4.5453302273
     H    -1.7722057397   -4.0678724703   -3.6943976203
     H    -3.7765224490   -5.5170614395   -3.7382096084
     H    -6.1990514803   -2.1436556141   -4.8565636048
     H    -4.2005741749   -0.6837257714   -4.8087588637
     H    -6.0023784290   -4.5673140894   -4.3230684463
     C    -1.6109083463   -1.3834414635   -4.2519020129
     H    -1.7621519508   -0.5049920025   -4.8868082163
     H    -0.7399776784   -1.9276001151   -4.6306833301
     C    -1.9637091850    1.1733562058    0.0722674817
     N    -2.9886284712    1.6944049643    0.2298601116
     C    -4.2778623895    3.5642168806    1.2477717736
     C    -4.0523473149    4.8176749761    0.6649756675
     C    -4.1018497436    5.9904375815    1.4500738908
     C    -4.3821280537    5.9114548476    2.8138912290
     C    -4.6145184454    4.6651686828    3.3976915081
     C    -4.5639243522    3.4902673623    2.6144601463
     H    -3.8617289683    4.9023514498   -0.4020433626
     H    -3.9376183102    6.9543772949    0.9787029803
     H    -4.8532621606    4.5910476828    4.4541189897
     H    -4.7770246058    2.5323772190    3.0823245065
     H    -4.4355010500    6.8139412448    3.4141601208
     C    -4.2967585424    2.3126143361    0.3915981994
     H    -4.6559345979    2.5225306154   -0.6207129263
     H    -4.9392127067    1.5393087282    0.8245642653
     C     1.1726278247    1.8147980193    4.1269870343
     C     1.2946976104    2.6401963071    2.9958986549
     C     0.8979141122    2.1500389451    1.7609519120
     N     0.4020513459    0.9013564690    1.6064669365
     C     0.2886894641    0.1017209137    2.6911758031
     C     0.6568416785    0.5185078670    3.9615378039
     C     1.5668064736    2.2859235133    5.4187275293
     H     1.6923826438    3.6455731350    3.0802628528
     H     0.9813715338    2.7667009304    0.8706005932
     H    -0.1062414821   -0.8968089481    2.5295603854
     H     0.5490192730   -0.1519872550    4.8071152757
     N     1.8850145247    2.6727091439    6.4678088567
