31
-9.8683838217702339e+02 frame 55   xyz file generated by TeraChem
    Co    -0.0977847480    0.0258736041   -0.0514711341
     O    -0.6725541506   -1.2777321628   -1.4733259257
     C    -1.3955306003   -2.2183202158   -0.9282527933
     C    -1.7239092113   -2.1000736461    0.4864433470
     C    -2.5405596816   -3.0846636055    1.0842545804
     C    -3.0190093581   -4.1750156857    0.3593042520
     C    -2.6807667018   -4.2878582997   -1.0100155607
     C    -1.8896485196   -3.3356786332   -1.6403059475
     O    -1.2448885637   -1.0719456413    1.1400838397
     H    -2.7795853282   -2.9710166274    2.1399518931
     H    -3.0517096727   -5.1399678211   -1.5788365492
     H    -1.6338240485   -3.4230161687   -2.6936730482
     C    -3.8886303010   -5.2244014276    1.0140990180
     H    -4.0100712310   -5.0281688941    2.0851099903
     H    -3.4629929324   -6.2324104350    0.9082620787
     H    -4.8940883777   -5.2600268321    0.5696225961
     O     1.8780174218    0.1880398513    0.2976741199
     C     2.2848085910    1.4114838516    0.1003148789
     C     1.2800776842    2.3997688896   -0.2591513119
     C     1.6685250730    3.7434164859   -0.4357297557
     C     3.0012089558    4.1362874418   -0.2991495250
     C     3.9712958093    3.1650764815    0.0388189746
     C     3.6267304666    1.8317024175    0.2335976898
     O     0.0491224992    1.9759436927   -0.3873400452
     H     0.8972758028    4.4674570337   -0.6920219330
     H     5.0104762423    3.4726209157    0.1510097573
     H     4.3740480190    1.0885128771    0.5014405744
     C     3.4133073058    5.5704046231   -0.5439525965
     H     2.5750624446    6.2596782713   -0.3884511251
     H     3.7717799712    5.7271061815   -1.5729191633
     H     4.2276382872    5.8766715172    0.1254135147
