29
-5.2745203362791926e+02 frame 41   xyz file generated by TeraChem
    Co    -0.3810829661    0.1675235555    0.3603225599
     C     2.2588210774    1.2158949304   -0.6896739111
     N     1.4974716332    0.6269028624    0.4699472253
     H     1.5725881121    1.2716927362    1.2733979894
     H     1.9753175674   -0.2335889380    0.7641505586
     H     1.8401120542    2.1785488925   -0.9835444479
     H     2.2769758137    0.5158437981   -1.5264210210
     H     3.2934057955    1.3792714769   -0.3554986945
     C    -1.7267761114   -1.3867896465   -1.5540739205
     N    -0.3661824042   -0.8048137428   -1.2863278058
     H    -0.0893842758   -0.1849061533   -2.0576660033
     H     0.3347783059   -1.5554539066   -1.2432069389
     H    -2.4818942864   -0.5972501104   -1.6060063932
     H    -1.9777034392   -2.1363957252   -0.8002180378
     H    -1.6978029743   -1.8861647114   -2.5359247619
     C    -1.6897552262    2.4734974026    0.9125955452
     N    -1.0184168999    1.9081235637   -0.3144727106
     H    -0.3013087118    2.5584863539   -0.6533044607
     H    -1.7066581574    1.8562399511   -1.0769848882
     H    -0.9836876059    2.5081906130    1.7526781364
     H    -2.5788011610    1.8844071002    1.1599437456
     H    -2.0134486175    3.5076658017    0.7221592102
     C     0.7241593283   -2.5762962686    1.4417994813
     N    -0.2047374796   -1.3941298979    1.6164388255
     H    -0.0232281272   -1.0019908625    2.5537828535
     H    -1.1586594377   -1.7768101646    1.7053460755
     H     1.7682378164   -2.2529323869    1.4700024419
     H     0.5010614704   -3.0924639867    0.5058631559
     H     0.5710348812   -3.2802023598    2.2670686221
