35
-8.7366310391398940e+02 frame 58   xyz file generated by TeraChem
    Fe     0.0825036829   -0.3787816776   -0.3636274296
     C     2.1303700838   -0.1188234135   -0.0547542922
     N     3.2556442647    0.0679377398    0.1551950893
     C     5.2127652891    1.3121784391   -0.6424991855
     C     5.8706924846    0.8125708137   -1.7718412757
     C     6.3871971140    1.6924728034   -2.7230358658
     C     6.2446424547    3.0706205790   -2.5491716776
     C     5.5884991673    3.5712275495   -1.4221057439
     C     5.0733855067    2.6942746578   -0.4682680343
     H     5.9907579367   -0.2602896720   -1.9031712761
     H     6.9063181571    1.3024980060   -3.5932937246
     H     5.4858991525    4.6428705760   -1.2810781010
     H     4.5727896551    3.0860293026    0.4141796324
     H     6.6513029294    3.7550494161   -3.2876990615
     C     4.6543247590    0.3575596626    0.3916173301
     H     4.7100315004    0.7661730448    1.4057939658
     H     5.1725528696   -0.6061914465    0.3847912277
     C    -0.4718808344   -1.8021127070   -1.7844315464
     N    -0.8285050935   -2.5821321709   -2.5652309884
     C    -2.8106697028   -3.8331185614   -3.2724881199
     C    -3.1892948478   -4.8699023657   -2.4117143337
     C    -4.5409987489   -5.1287496576   -2.1868166560
     C    -5.5153046265   -4.3527611969   -2.8187740929
     C    -5.1391544950   -3.3188112360   -3.6792413493
     C    -3.7883423758   -3.0574841827   -3.9064758495
     H    -2.4318196852   -5.4810750781   -1.9265407373
     H    -4.8326230991   -5.9387887667   -1.5252646680
     H    -5.8959178095   -2.7209927972   -4.1779655764
     H    -3.4964509093   -2.2583773812   -4.5839131207
     H    -6.5675560630   -4.5581665795   -2.6462436447
     C    -1.3434681659   -3.5470852421   -3.5147774006
     H    -1.1644801258   -3.1239917834   -4.5080265376
     H    -0.7251103276   -4.4433763613   -3.4058899583
     I    -0.8068453681    1.8633731763   -1.1733202975
     I    -0.8814677713   -1.1445614757    1.8627919471
