16
-7.8365375934047074e+02 frame 40   xyz file generated by TeraChem
    Fe    -0.0733439448    0.0926203915   -0.0756462285
     N     1.8479672104   -0.1218810415    0.1958907980
     C     3.0295045532   -0.2178936103    0.3498786935
     S     4.6171735600   -0.3539158149    0.5589692257
     N    -0.6013830559   -1.4537661389   -1.4425146775
     H    -1.6056996043   -1.6296495112   -1.5533712042
     H    -0.2553295859   -1.2615772367   -2.3894660590
     H    -0.1898196145   -2.3585428006   -1.1892583174
     N    -0.5641190986    2.0754235504   -0.6236277029
     H    -0.8758686654    2.6574940530    0.1620978356
     H     0.2376383881    2.5763584663   -1.0235368180
     H    -1.3083655261    2.1470466553   -1.3262833877
     N    -0.9133897640   -0.4602321003    1.8139809400
     H    -0.4863249061   -1.3108872737    2.1951911301
     H    -0.7615991264    0.2553888054    2.5332149505
     H    -1.9237036717   -0.6338266162    1.8143559254
