49
-2.7089263978123267e+03 frame 44   xyz file generated by TeraChem
    Fe    -0.4812426637   -0.4515509797   -0.0572348610
     C     4.1929548463   -1.0111693678    0.6935305245
     C     3.6746345683    0.2817761015    0.4906592268
     C     2.3200186051    0.4508052658    0.2569900251
     N     1.4477807842   -0.5802868994    0.2108214207
     C     1.9400660773   -1.8275059294    0.4112213519
     C     3.2768950262   -2.0828971913    0.6476066533
     S     5.8801504642   -1.3724368104    0.9975838032
     H     4.3147884842    1.1574308846    0.5132600591
     H     1.9040429897    1.4383622375    0.1001002690
     H     1.2278867107   -2.6496643688    0.3816332785
     H     3.6037607819   -3.1064507472    0.7994516341
     H     6.3295951679   -0.1014483442    0.9558523533
     C    -0.9132919119   -1.5293826334   -4.7262476991
     C     0.3640182296   -1.5503862915   -4.1333521430
     C     0.5121104518   -1.1730693226   -2.8105219645
     N    -0.5209740949   -0.7711362402   -2.0328172506
     C    -1.7504096413   -0.7379214356   -2.6090469510
     C    -1.9887227089   -1.1037018949   -3.9187218407
     S    -1.2481661998   -1.9878222767   -6.3823466101
     H     1.2404377345   -1.8601003134   -4.6929197980
     H     1.4887539175   -1.1861712722   -2.3410226421
     H    -2.5725339048   -0.3913845073   -1.9859457611
     H    -2.9993326492   -1.0561800302   -4.3110592303
     H     0.0182520970   -2.3014789342   -6.7242566118
     C    -1.4628155863    4.2200961925   -0.4506114126
     C    -0.6260932295    3.5640227365   -1.3749231595
     C    -0.3410296410    2.2212945311   -1.2103393335
     N    -0.8166305745    1.4779440897   -0.1788459804
     C    -1.6191686582    2.1115358024    0.7156209150
     C    -1.9619034254    3.4460711628    0.6151207409
     S    -1.9154151811    5.9081328855   -0.5408471662
     H    -0.2012922171    4.0880423719   -2.2247212723
     H     0.2914538467    1.7071130945   -1.9232716316
     H    -1.9926833693    1.5129598602    1.5361004074
     H    -2.6131650159    3.8814917297    1.3660249946
     H    -1.2305185241    6.2026614433   -1.6649081869
     C    -1.5165344872   -1.3667076413    4.5648926966
     C    -2.2160751970   -1.9379999101    3.4846492345
     C    -1.8666362312   -1.5900406922    2.1921249941
     N    -0.8721346556   -0.7186720928    1.8904455983
     C    -0.1987982745   -0.1693560275    2.9317202754
     C    -0.4839279424   -0.4575123515    4.2518404180
     S    -1.8428314277   -1.7070299223    6.2508679794
     H    -3.0247447061   -2.6439435628    3.6409640651
     H    -2.4071288415   -2.0255605788    1.3532788397
     H     0.5928405669    0.5269725374    2.6797253814
     H     0.0939713845    0.0198323235    5.0366546682
     H    -2.8563295924   -2.5741427038    6.0505970374
