39
-1.8328689194597273e+03 frame 133   xyz file generated by TeraChem
    Fe    -0.3650801871   -0.5659089428    0.0239180061
     S     1.7342560466   -0.2223424180   -0.3746716159
     C     2.0071415046    1.4226712724   -0.6756581863
     N     2.1932620776    2.5547574443   -0.8913438457
     S    -1.5941653334   -1.8721701266   -1.2096622296
     C    -2.1180416559   -3.1106335622   -0.1770665275
     N    -2.4954468769   -3.9526213178    0.5394646741
     C    -0.9297726644    1.0869920447   -0.6565517644
     N    -1.2396870592    2.1266195078   -1.0638901679
     C    -1.6651754658    4.4360003271   -0.3654317407
     C    -2.9423210946    4.7986285677    0.0770069594
     C    -3.0822699970    5.6952907848    1.1364176655
     C    -1.9484721606    6.2249131512    1.7565588699
     C    -0.6728854758    5.8609033635    1.3169801682
     C    -0.5274578859    4.9679643650    0.2560730776
     H    -3.8252918517    4.3955627977   -0.4135311987
     H    -4.0737529035    5.9864057006    1.4699906066
     H     0.2084854871    6.2813355136    1.7918257891
     H     0.4644793676    4.6911316592   -0.0933523408
     H    -2.0584866930    6.9283133516    2.5766915711
     C    -1.5080780588    3.4759548153   -1.5249828530
     H    -0.6609618416    3.7394779469   -2.1661261703
     H    -2.4098275772    3.4197296179   -2.1413297447
     C    -1.3761082701   -0.8205544489    1.6456846373
     N    -1.9300066533   -1.0263159579    2.6430154052
     C    -1.7698526524   -2.4776617881    4.6062126605
     C    -1.7879135478   -3.8100651666    4.1711255343
     C    -1.0383972564   -4.7684787557    4.8517030358
     C    -0.2762378206   -4.4023062193    5.9643041742
     C    -0.2595366913   -3.0748981509    6.3977973016
     C    -1.0028216093   -2.1102779195    5.7172816079
     H    -2.3819451808   -4.0981354287    3.3071163412
     H    -1.0567673450   -5.8016181271    4.5184222105
     H     0.3271596248   -2.7907988594    7.2660571331
     H    -0.9939238431   -1.0777992882    6.0584917091
     H     0.2999123849   -5.1530809673    6.4969293681
     C    -2.5836040253   -1.4331273273    3.8727400207
     H    -2.7233360808   -0.5256368520    4.4669419328
     H    -3.5686932435   -1.8061686331    3.5733329243
