35
-9.6766509455330390e+02 frame 59   xyz file generated by TeraChem
    Fe     0.1554251064    0.0607581382    0.1145122033
     C     4.6189591237    1.3026936882   -0.7607863111
     C     3.9016396394    0.7487374779   -1.8259241697
     C     2.5840499666    0.3626271223   -1.6250768936
     N     1.9770450210    0.5139782182   -0.4240345453
     C     2.6684053231    1.0555231679    0.6109172860
     C     3.9911268161    1.4558416535    0.4773862183
     H     5.6519103679    1.6095998338   -0.8944708143
     H     4.3561500486    0.6141767739   -2.8018143096
     H     1.9947906146   -0.0794588450   -2.4210477870
     H     2.1466329221    1.1552499632    1.5612455881
     H     4.5113440567    1.8760008383    1.3314607529
     C    -0.9439117827   -3.8230912072   -2.1987283541
     C     0.3319976635   -3.6574886280   -1.6525455110
     C     0.6588525756   -2.4459492065   -1.0613602082
     N    -0.2345242133   -1.4257312821   -1.0044101682
     C    -1.4781566659   -1.5818257288   -1.5211541184
     C    -1.8584895134   -2.7682984196   -2.1314203501
     H    -1.2233866985   -4.7633053773   -2.6646159294
     H     1.0676925910   -4.4543088876   -1.6766178975
     H     1.6340681140   -2.2760338267   -0.6169137948
     H    -2.1594314403   -0.7442644723   -1.4274820820
     H    -2.8607600365   -2.8612578041   -2.5358322206
     C    -2.3119948043    3.7623242134   -1.3151346342
     C    -1.4771376886    3.0913896327   -2.2151357539
     C    -0.7700968623    1.9817564794   -1.7792372776
     N    -0.8785234985    1.5339400061   -0.5045119761
     C    -1.6905650769    2.1724437298    0.3775798226
     C    -2.4159781380    3.2934095105   -0.0050281205
     H    -2.8724163824    4.6362090445   -1.6334644427
     H    -1.3690977704    3.4223646835   -3.2425432643
     H    -0.1083345137    1.4344983769   -2.4411499449
     H    -1.7421588089    1.7584127880    1.3761495967
     H    -3.0543196058    3.7806337904    0.7244724327
     F    -0.6117627868   -0.1567830675    1.6240253655
