101
-2.0128638230213055e+03 frame 141   xyz file generated by TeraChem
    Cr    -0.0170082051    0.0061715229    0.0742967206
     C     1.8168735226   -0.9867239276    0.4128366670
     N     2.8259423117   -1.5505322980    0.5647948356
     C     4.0190472807   -2.2338495478    0.7247768878
     C     5.2005244701   -1.5184528872    0.9770567897
     C     6.3877446075   -2.2214329525    1.1118446705
     C     6.4428072496   -3.6271857063    1.0033400379
     C     7.7891127643   -4.3513856001    1.1357771399
     C     8.7418895369   -3.8395468596    0.0259170560
     C     8.4021784895   -4.0447084351    2.5252155508
     C     7.6501581310   -5.8787035233    0.9917965770
     C     5.2352618102   -4.3065845265    0.7615640779
     C     4.0285587016   -3.6307720897    0.6198987568
     H     5.1786561639   -0.4365522820    1.0586106788
     H     7.2964014551   -1.6609764408    1.3029261392
     H     8.3306036652   -4.0338053675   -0.9709114993
     H     9.7049811302   -4.3555438496    0.0994832627
     H     8.9369410993   -2.7652582233    0.1098832483
     H     7.7510714001   -4.3963432380    3.3330492616
     H     8.5807187053   -2.9745593256    2.6733463192
     H     9.3655396910   -4.5561593026    2.6200662985
     H     7.0098291939   -6.3103618811    1.7695597931
     H     8.6365674354   -6.3417328534    1.0895760362
     H     7.2526283820   -6.1669530599    0.0118896912
     H     5.2282637963   -5.3861331665    0.6766587080
     H     3.1068040975   -4.1710443471    0.4294773877
     C     0.2039758646   -0.3452568436   -1.9938511463
     N     0.3142847358   -0.5635317010   -3.1343069579
     C     0.4295440291   -0.8300364481   -4.4860830704
     C    -0.7242147739   -0.8399868621   -5.2869033129
     C    -0.5960207661   -1.1187809428   -6.6380391279
     C     0.6550411691   -1.3932929686   -7.2306389947
     C     0.7342638895   -1.7084744551   -8.7307337801
     C    -0.1333593080   -2.9573439079   -9.0278235316
     C     0.1895932594   -0.4978320545   -9.5292587448
     C     2.1743259397   -1.9952665765   -9.1955261759
     C     1.7870735554   -1.3674724072   -6.3962687790
     C     1.6907520456   -1.0912566685   -5.0368692828
     H    -1.6954843137   -0.6379315688   -4.8472421893
     H    -1.4929344013   -1.1273125141   -7.2476683435
     H     0.2347934669   -3.8343355950   -8.4841334774
     H    -0.0972862700   -3.1848366323  -10.0984544220
     H    -1.1838735691   -2.8072072364   -8.7581394409
     H     0.7876387238    0.4014935873   -9.3453747410
     H    -0.8515149828   -0.2713269887   -9.2768569649
     H     0.2285370676   -0.7164192366  -10.6015545287
     H     2.8370933543   -1.1354200890   -9.0451701519
     H     2.1706309493   -2.2183924392  -10.2666679825
     H     2.6059248726   -2.8633119955   -8.6842765229
     H     2.7687368111   -1.5678528278   -6.8072717592
     H     2.5750700959   -1.0766202942   -4.4080852773
     C    -1.8443570019    1.0000956748   -0.2795213637
     N    -2.8448051425    1.5678924528   -0.4710053788
     C    -4.0248897282    2.2533564040   -0.6965812327
     C    -5.0833783081    2.1302629863    0.2181250843
     C    -6.2530264230    2.8350611195   -0.0181275620
     C    -6.4106824281    3.6685181337   -1.1459988471
     C    -7.7223319853    4.4401214675   -1.3483997816
     C    -8.9063910621    3.4427920387   -1.3748112960
     C    -7.9034480228    5.4270867802   -0.1665968652
     C    -7.7316326825    5.2454701912   -2.6616185439
     C    -5.3286663270    3.7613955386   -2.0401765525
     C    -4.1425942630    3.0673030919   -1.8307323482
     H    -4.9807472182    1.4911274841    1.0890592039
     H    -7.0658123372    2.7369500813    0.6930000796
     H    -8.8075997061    2.7267772260   -2.1983065351
     H    -9.8443868437    3.9900191306   -1.5153886402
     H    -8.9946283658    2.8768509215   -0.4417132703
     H    -7.0837441111    6.1527286805   -0.1282474882
     H    -7.9484193717    4.9114617973    0.7985074606
     H    -8.8402989753    5.9803577066   -0.2902833723
     H    -6.9436218189    6.0064728347   -2.6827872137
     H    -8.6885487843    5.7665412231   -2.7612787499
     H    -7.6186026860    4.6003538181   -3.5404946164
     H    -5.4049892981    4.3893389277   -2.9189189003
     H    -3.3153398548    3.1549131773   -2.5275998427
     C    -0.2473076692    0.3573950767    2.1411788246
     N    -0.3563974587    0.5682843005    3.2831082185
     C    -0.4793857937    0.8252673015    4.6360118953
     C     0.2073253413    0.0202988213    5.5593807637
     C     0.0785681604    0.2981524365    6.9109718320
     C    -0.7188027535    1.3617893484    7.3844684872
     C    -0.8150386551    1.6319661164    8.8924895000
     C    -1.3493647427    0.3646387391    9.6047859592
     C     0.5985123718    1.9725891783    9.4284436534
     C    -1.7565543790    2.8068037408    9.2181289412
     C    -1.3919733462    2.1430439917    6.4279198020
     C    -1.2826481788    1.8896681723    5.0655517048
     H     0.8249335883   -0.8021245122    5.2134301390
     H     0.6135554852   -0.3277866683    7.6167961911
     H    -2.3527849229    0.1037364772    9.2507958225
     H    -1.4083188037    0.5459443046   10.6830687738
     H    -0.6990973090   -0.5029409126    9.4527556072
     H     1.0044140948    2.8632256119    8.9364622967
     H     1.3067710969    1.1500826914    9.2825594579
     H     0.5453542432    2.1748718119   10.5033769941
     H    -1.4115755065    3.7478397975    8.7748961592
     H    -1.7914430920    2.9536455130   10.3018999564
     H    -2.7825988116    2.6171359360    8.8826627180
     H    -2.0162862216    2.9689597480    6.7451744645
     H    -1.8046369423    2.5063017578    4.3410375236
