11
-1.6297935974009415e+03 frame 17   xyz file generated by TeraChem
    Co    -0.0689868546    0.1889297663    0.1821151993
     S     2.2644259251   -0.0505997919    0.4978815753
     C     3.0345756192    0.1497323639   -0.9989939032
     N     3.6511543387    0.2833296284   -1.9876657531
     S    -1.0712375795   -0.7629923706   -1.8798556596
     C    -0.6565887060   -2.3998360371   -1.9306289137
     N    -0.4172792442   -3.5450171766   -2.0288748893
     S    -1.0211540464    2.3531302922    0.4618955967
     C    -0.9683319243    3.1606997694   -1.0272728532
     N    -0.9732581005    3.7869299301   -2.0194167018
     I    -0.8194095850   -0.7155661726    2.7420466341
