11
-1.2531285443420006e+03 frame 104   xyz file generated by TeraChem
    Mn     0.0722978787   -0.1644764855   -0.1583432103
     C     2.6972409823   -1.0503999152    0.8807534882
     O     1.9870196492   -0.4630088856    0.0630418768
     H     2.2595732506   -1.6570718225    1.6838656700
     H     3.7862454985   -0.9593855560    0.7939748435
     C    -0.4986923119   -0.8085011150   -2.9753386803
     O    -0.0683321183   -1.1144897509   -1.8617035165
     H    -0.8549751938    0.2060824614   -3.1946079899
     H    -0.5228504403   -1.5766278673   -3.7571420630
    Cl    -0.8902084046    1.6901273030   -0.4784680359
    Cl    -0.7899653639   -1.0171430430    1.5751468826
