53
-1.3832932527888292e+03 frame 75   xyz file generated by TeraChem
    Cr     0.0746304280   -0.0483300553   -0.1107693845
     C     1.9921497494    0.3345511948    0.1502358344
     N     3.1447432191    0.5096385404    0.2849430541
     C     4.4876406693    0.6963165964    0.4395415518
     C     5.0649758181    1.9221597638    0.0279468502
     C     6.4299928945    2.0926557410    0.1839414503
     C     7.2098921206    1.0634635263    0.7396573619
     C     6.6265212191   -0.1494085120    1.1456864506
     C     5.2638757639   -0.3468032911    1.0013669271
     H     4.4422526530    2.7002503659   -0.4000429794
     H     6.8972247009    3.0219575782   -0.1246847667
     H     7.2438107781   -0.9333528719    1.5718065793
     H     4.7907958138   -1.2743739137    1.3055192826
     H     8.2797549979    1.2076436359    0.8568364807
     C    -0.4384117603   -1.3472029794   -1.5246392399
     N    -0.6901810727   -2.1240678358   -2.3665701463
     C    -0.9819879610   -3.0257749888   -3.3482929818
     C    -1.1451033982   -4.3891276642   -3.0006561000
     C    -1.4327200632   -5.2949387702   -4.0070961682
     C    -1.5583313981   -4.8549827385   -5.3365086504
     C    -1.3955663116   -3.4989771629   -5.6699827070
     C    -1.1061875577   -2.5711309714   -4.6839469037
     H    -1.0404435947   -4.7032076794   -1.9677596729
     H    -1.5602144639   -6.3455928281   -3.7681886076
     H    -1.4955365907   -3.1777246146   -6.7014684146
     H    -0.9744525869   -1.5197588896   -4.9161578226
     H    -1.7840108322   -5.5740386196   -6.1182872379
     C    -0.6993180214    1.7251375995   -0.4059234133
     N    -1.1911337232    2.7758833474   -0.5833703968
     C    -1.7767328610    3.9905359326   -0.7936560435
     C    -3.1770733728    4.0490194052   -0.9999717117
     C    -3.7603965242    5.2861962594   -1.2132609434
     C    -2.9674289844    6.4471500221   -1.2220089114
     C    -1.5783446503    6.3777885726   -1.0156471477
     C    -0.9689018001    5.1536656057   -0.7998954821
     H    -3.7670469571    3.1388261845   -0.9885887199
     H    -4.8309964430    5.3580435579   -1.3741094855
     H    -0.9822124536    7.2842553440   -1.0255424155
     H     0.1006255829    5.0746684524   -0.6378720630
     H    -3.4349277992    7.4126275512   -1.3906276203
     C    -0.6973707171   -0.7921346458    1.5396850647
     N    -1.1711181244   -1.2066954763    2.5292524673
     C    -1.7114341545   -1.6839719879    3.6891107517
     C    -2.8303435611   -2.5491893414    3.6229533195
     C    -3.3701237782   -3.0182110977    4.8084918923
     C    -2.8074924237   -2.6368801241    6.0393368137
     C    -1.6956402878   -1.7780901982    6.0927474927
     C    -1.1366955727   -1.2925444656    4.9229118985
     H    -3.2477233765   -2.8278410225    2.6613088337
     H    -4.2288252155   -3.6810470221    4.7861536516
     H    -1.2743378221   -1.4935513575    7.0512845805
     H    -0.2801638877   -0.6271465970    4.9376952697
     H    -3.2386019008   -3.0112289655    6.9629997823
