49
-1.2010969987992555e+03 frame 41   xyz file generated by TeraChem
    Fe     0.0093343864   -0.0768905064   -0.2151437693
     O    -0.5328332247   -1.2779290463   -1.5928245184
     C    -1.3097736697   -2.2363439076   -1.0574928815
     C    -1.6297827856   -2.1085704187    0.3298988794
     C    -2.4294630592   -3.0656029180    0.9480049497
     C    -2.9472044131   -4.1693159444    0.2333173284
     C    -3.8177904214   -5.2029643961    0.9713770884
     C    -2.9922195103   -5.8690453087    2.0983579094
     C    -5.0497582136   -4.5056356856    1.5958489360
     C    -4.3282621404   -6.3164418422    0.0369260696
     C    -2.6280258684   -4.2749809174   -1.1243505477
     C    -1.8179333786   -3.3219943991   -1.7652329345
     O    -1.1233369941   -1.0344164362    0.9675911518
     H    -2.6415422617   -2.9305127961    2.0059266471
     H    -2.1129850321   -6.3757785422    1.6840717028
     H    -3.5957623919   -6.6123799040    2.6380329226
     H    -2.6377832748   -5.1295348076    2.8234652045
     H    -5.6650576096   -4.0376870878    0.8185013996
     H    -4.7510621507   -3.7211507019    2.2979851581
     H    -5.6742428521   -5.2278270760    2.1402987862
     H    -4.9498593343   -5.9120759218   -0.7703015839
     H    -4.9382640030   -7.0312402421    0.6038765270
     H    -3.5009675772   -6.8727168453   -0.4182306164
     H    -3.0027236750   -5.1044652133   -1.7154789192
     H    -1.5773481861   -3.4187183894   -2.8213477192
     O     1.8864628992    0.0445820820    0.1309770255
     C     2.3274806987    1.3010593627   -0.0273136062
     C     1.3414508643    2.2662805272   -0.3868162353
     C     1.7020011408    3.5957938708   -0.5789709432
     C     3.0414691745    4.0207139194   -0.4228604567
     C     3.3907389229    5.5010993517   -0.6664833676
     C     3.0580575981    5.8774709398   -2.1298087768
     C     2.5674805651    6.4009160369    0.2856743778
     C     4.8823403626    5.8031594127   -0.4248359049
     C     3.9947239794    3.0618478051   -0.0654621072
     C     3.6471362400    1.7133616220    0.1319139242
     O     0.0889452740    1.7947686667   -0.5170630649
     H     0.9179620775    4.2956193045   -0.8575188302
     H     3.6489795481    5.2724705869   -2.8273351857
     H     3.2770401390    6.9371428408   -2.3235063651
     H     2.0012347742    5.7029400298   -2.3552663818
     H     2.7995217708    6.1705870862    1.3320851630
     H     1.4915230620    6.2553801973    0.1465547150
     H     2.7900799020    7.4628289651    0.1101976161
     H     5.1755832103    5.5777434061    0.6067821842
     H     5.0832336871    6.8667070584   -0.6068282050
     H     5.5268141162    5.2224823506   -1.0945396156
     H     5.0349117382    3.3428736703    0.0667379289
     H     4.4011926647    0.9796382339    0.4067352921
