9
-2.0261043189832735e+03 frame 54   xyz file generated by TeraChem
    Fe     0.3707227623   -0.4755630875   -0.4294055594
     S     2.7913329370   -0.1781468759   -0.7309029448
     C     3.3484344048    1.0395509115    0.2985769465
     N     3.8176648154    1.8668387071    0.9880516302
     S     0.3945936011   -2.1719948123   -2.2117463800
     C    -1.1512035127   -2.8257403534   -2.4000066245
     N    -2.1944820084   -3.3263092625   -2.6024327116
    Cl    -0.6772975339    1.5705455397   -0.7810276812
    Cl    -0.5311947313   -1.4441776209    1.4843347527
