29
-4.6934557127319374e+02 frame 54   xyz file generated by TeraChem
    Cr     0.0757731821    0.0611167877    0.0881135184
     C     1.6362999684   -2.5901830932    0.5467737868
     N     1.8552234159   -1.1392677100    0.2040878065
     H     2.4099887387   -1.1027350680   -0.6556898651
     H     2.4878361997   -0.7449569807    0.9058104799
     H     1.0230379338   -3.0579415791   -0.2263654765
     H     1.1153380480   -2.6602694572    1.5037710694
     H     2.5874847903   -3.1233561250    0.6179245226
     C    -1.2458402841   -0.7257432679   -2.7244870109
     N     0.0359804087   -0.2971551881   -2.0606066229
     H     0.3732785846    0.5384224005   -2.5505775980
     H     0.7342988524   -1.0085933474   -2.2892153179
     H    -1.9780451143    0.0811207990   -2.6694842209
     H    -1.6399630046   -1.6089332388   -2.2178515245
     H    -1.0766575809   -0.9637333659   -3.7774633649
     C    -2.1987196945    2.2411764562    0.8917445691
     N    -1.8071456693    1.1468024803   -0.0618280932
     H    -1.8240993737    1.5526095374   -1.0005393205
     H    -2.5743442525    0.4660885887   -0.0804182962
     H    -1.3986100597    2.9831237575    0.9475535460
     H    -2.3902340703    1.8140726931    1.8779651514
     H    -3.1123031277    2.7386325452    0.5564037235
     C     1.3667199288    0.3766269392    3.0297960611
     N     0.0940674087    0.3785502357    2.2307356310
     H    -0.3504597527    1.2868465294    2.3840763728
     H    -0.5508727177   -0.2851681989    2.6725649768
     H     2.0699157895    1.0891434183    2.5929782227
     H     1.7974967357   -0.6260364474    3.0263662281
     H     1.1744286922    0.6630652860    4.0667457410
