29
-5.2807178948385899e+02 frame 69   xyz file generated by TeraChem
    Co    -0.0835456066   -0.0240827386    0.0792050785
     C     2.7849934964   -0.7925121309    0.5565112945
     N     1.3974302227   -1.3719104450    0.4400545626
     H     1.2005770864   -1.8971568066    1.2968272615
     H     1.4136722481   -2.0957842752   -0.2843040817
     H     2.8132551233   -0.0808859242    1.3836032305
     H     3.0440440040   -0.2726430946   -0.3677025951
     H     3.5142200237   -1.5855072762    0.7396420477
     C    -0.7469818955   -1.3907202787   -2.4807350050
     N     0.1370147234   -0.3241257663   -1.8967606968
     H    -0.0208346469    0.5443159888   -2.4149150274
     H     1.1113831523   -0.5525250794   -2.1113597779
     H    -1.7925612525   -1.1077751305   -2.3441070665
     H    -0.5673391592   -2.3373221351   -1.9668763242
     H    -0.5471578306   -1.5179456604   -3.5478037152
     C    -0.8221018986    2.8519815145   -0.3990888900
     N    -1.4159134788    1.4705094354   -0.2821601210
     H    -1.9427524296    1.2788401948   -1.1391869196
     H    -2.1403605068    1.4948109975    0.4414362898
     H    -0.1087274165    2.8718067243   -1.2248686550
     H    -0.3010971865    3.1063115363    0.5257513083
     H    -1.6071672874    3.5892238836   -0.5842968533
     C    -1.4532009242   -0.6781125687    2.6397024739
     N    -0.3809757995    0.1986611711    2.0551616833
     H     0.4865434521    0.0353523863    2.5732143130
     H    -0.6031759347    1.1745232423    2.2692693131
     H    -1.1777777812   -1.7255737754    2.5021378781
     H    -2.3990738599   -0.4914857890    2.1269779189
     H    -1.5778552667   -0.4780708981    3.7070345688
