61
-1.5544477177499928e+03 frame 83   xyz file generated by TeraChem
    Fe    -0.1556290276    0.1289026741    0.2143799263
     C     1.9700510656    0.1987441276    0.0704842334
     N     3.1308344178    0.1867020552    0.0512374156
     C     5.2412476825    0.8139635100   -1.1071057004
     C     5.5310438050    0.0810126562   -2.2635133391
     C     6.2047709899    0.6899411527   -3.3453773275
     C     6.5927736525    2.0274776811   -3.2690015010
     C     6.3114831298    2.7601725386   -2.1156508121
     C     5.6362339840    2.1537048824   -1.0327767953
     H     5.2645379530   -0.9707826267   -2.3304640486
     H     6.4331087789    0.1022103964   -4.2289607456
     H     6.6241007347    3.7965168978   -2.0347388060
     H     5.4515560543    2.7332102321   -0.1318355313
     H     7.1238020438    2.4902860491   -4.0944505128
     C     4.5851454877    0.1418424636    0.0838858287
     H     4.8778042631    0.6154981152    1.0261856816
     H     4.8478681439   -0.9192808818    0.1430732432
     C    -0.8274730305   -1.2917537777   -1.2175258946
     N    -1.1358654492   -2.0692038027   -2.0229442765
     C    -2.8971498049   -3.5379003418   -2.9849261023
     C    -3.2173718811   -4.6792383263   -2.2415347623
     C    -4.5393310158   -5.1808300856   -2.2336795200
     C    -5.5376786139   -4.5448864316   -2.9713055089
     C    -5.2218766721   -3.4102394941   -3.7186383873
     C    -3.9006834970   -2.9067043486   -3.7273837782
     H    -2.4485272165   -5.2069837470   -1.6828420781
     H    -4.7652278575   -6.0748454946   -1.6609016800
     H    -5.9839109108   -2.9148996270   -4.3122124403
     H    -3.6697521764   -2.0381785616   -4.3389808353
     H    -6.5487917560   -4.9387328132   -2.9760733861
     C    -1.4649602735   -3.0414716625   -3.0521974216
     H    -1.2552574467   -2.5486779354   -4.0068520717
     H    -0.7491903439   -3.8607545066   -2.9318072647
     C    -0.9753123660    2.0357452695   -0.2461539802
     N    -1.4205320734    3.0704899340   -0.5262520034
     C    -2.2733307597    5.2725914153    0.2471177209
     C    -1.2931450755    6.1368717644    0.7506513182
     C    -1.5990795289    7.0299561573    1.8004233057
     C    -2.8832715923    7.0634778888    2.3421639651
     C    -3.8652102596    6.2087297419    1.8389000922
     C    -3.5607962729    5.3128853321    0.7898812123
     H    -0.2941776712    6.1457721007    0.3218787350
     H    -0.8302247479    7.7011371600    2.1699966634
     H    -4.8738444644    6.2370237393    2.2391363668
     H    -4.3465749083    4.6745235555    0.3938879028
     H    -3.1224054010    7.7593127166    3.1397521429
     C    -1.9643290189    4.3594600026   -0.9239486501
     H    -1.2213949011    4.7989987827   -1.5975094939
     H    -2.8611108358    4.1393939785   -1.5115317205
     C    -1.5645885034   -1.4870032449    4.5586715945
     C    -2.4508493576   -0.7640299324    3.7406768605
     C    -2.0102229585   -0.3291981712    2.5021197747
     N    -0.7568294050   -0.5697749060    2.0446346103
     C     0.0938069804   -1.2711946218    2.8338874804
     C    -0.2653644881   -1.7422520476    4.0862184621
     C    -1.9785990180   -1.9549208409    5.8444876506
     H    -3.4612215155   -0.5487655812    4.0699114526
     H    -2.6704132302    0.2309694669    1.8470597161
     H     1.0903736666   -1.4545204043    2.4443116831
     H     0.4460370193   -2.2968885997    4.6880235902
     N    -2.3175534791   -2.3357070898    6.8894994014
