49
-2.3654233408488521e+03 frame 68   xyz file generated by TeraChem
    Cr    -0.0560791381    0.0309213203   -0.0413416634
     C     3.8225672135   -2.4917879254    1.6391137476
     C     3.7917813492   -1.0874769883    1.6936070961
     C     2.6716389125   -0.4238469940    1.2164038246
     N     1.6065820337   -1.0679370824    0.6786711229
     C     1.6448466539   -2.4220495412    0.6230665974
     C     2.7158600601   -3.1659309000    1.0943438367
     C     4.9530280674   -3.2178725181    2.1277981658
     H     4.6254181945   -0.5285572427    2.1047095612
     H     2.6182967991    0.6595296534    1.2698607487
     H     0.7854472753   -2.9175890456    0.1820877054
     H     2.6965394320   -4.2489137281    1.0383350360
     N     5.8722117304   -3.8088673198    2.5248762758
     C     0.6136475878   -2.1565957575   -4.4249756856
     C     1.6667415054   -1.4791353884   -3.7735678619
     C     1.4259862647   -0.8735388402   -2.5522396295
     N     0.2126613929   -0.8802855420   -1.9407451233
     C    -0.8008840608   -1.5243145083   -2.5748552499
     C    -0.6490819302   -2.1688807911   -3.7895762285
     S     0.7615549699   -2.9785205067   -5.9586183375
     H     2.6613978399   -1.4239058309   -4.2040094738
     H     2.2323634574   -0.3643276643   -2.0341094839
     H    -1.7670315803   -1.5131972546   -2.0815657436
     H    -1.5004019525   -2.6719302874   -4.2375597182
     H     2.0698863552   -2.7172235765   -6.1736406692
     C    -3.9831257730    2.5754924803   -1.6228111808
     C    -2.7424975593    2.6524082519   -2.2919427799
     C    -1.6743428587    1.9088016318   -1.8193810470
     N    -1.7465338329    1.1097045806   -0.7240236456
     C    -2.9405581581    1.0391691216   -0.0802025753
     C    -4.0642186975    1.7336486047   -0.4898035957
     S    -5.4217292482    3.4435801323   -2.0974351846
     H    -2.6057360197    3.2756383934   -3.1697294484
     H    -0.7202936217    1.9463013751   -2.3365486336
     H    -2.9875003426    0.4007123884    0.7961355481
     H    -4.9905802816    1.6262662323    0.0659953894
     H    -4.8913036906    4.1006743208   -3.1522887907
     C    -0.5419345214    2.0205941369    4.4621790056
     C    -0.5650274833    0.6207247825    4.2842730222
     C    -0.4333343343    0.1022003636    3.0074737332
     N    -0.2986715348    0.8720984232    1.8977989340
     C    -0.2825877305    2.2188984439    2.0696542002
     C    -0.3920085983    2.8250050682    3.3091476885
     S    -0.6823504801    2.8268469429    6.0050745102
     H    -0.6772468745   -0.0596248954    5.1221995332
     H    -0.4257447273   -0.9719697372    2.8539050514
     H    -0.1803320011    2.8330570764    1.1797051021
     H    -0.3643999730    3.9080520044    3.3787234260
     H    -0.8100733073    1.7213384905    6.7717838139
