43
-2.1946324350357668e+03 frame 71   xyz file generated by TeraChem
    Fe    -0.1743057088   -0.1245979614   -0.0460009983
     C     2.9105470420   -0.6454384188   -0.4508445314
     N     1.7586431725   -0.5260772516   -0.3013414543
     C     4.3450170538   -0.7917624282   -0.6429986435
     H     4.8624583318   -0.7523142120    0.3262776194
     H     4.7206406390    0.0200133317   -1.2831234843
     H     4.5630072701   -1.7568007500   -1.1233873113
     C    -2.1226627679   -2.6502189192   -3.6555274203
     C    -0.7348072880   -2.7316513918   -3.3871145682
     C    -0.1839092027   -1.9381936834   -2.3920654767
     N    -0.9184235939   -1.0628888368   -1.6441722745
     C    -2.2580723914   -0.9778260658   -1.9097817570
     C    -2.8866601243   -1.7389485261   -2.8799391827
     S    -2.9588959639   -3.5869109028   -4.8724743883
     H    -0.0853762845   -3.4059109663   -3.9424783897
     H     0.8776145358   -1.9944625289   -2.1717824369
     H    -2.8300061638   -0.2718900332   -1.3112657329
     H    -3.9588799726   -1.6276524712   -3.0339030637
     H    -1.8834884351   -4.2727769661   -5.3365638051
     C    -2.0167895873    4.2743748344   -0.5331656879
     C    -1.5967646730    3.4970095104   -1.6419567784
     C    -1.1603823187    2.1987022632   -1.4359641373
     N    -1.1013596115    1.6149781761   -0.1987949189
     C    -1.5057964927    2.3651465980    0.8705110148
     C    -1.9636926801    3.6663268218    0.7473801253
     S    -2.5958761288    5.9194026830   -0.6346631583
     H    -1.6063885241    3.8944790805   -2.6552543128
     H    -0.8368957393    1.5905697330   -2.2770845682
     H    -1.4459029086    1.8980812194    1.8483117016
     H    -2.2736883831    4.2061285346    1.6408215273
     H    -2.4731148443    6.0652898564   -1.9786224452
     C    -0.4883255715   -1.0582099060    4.6662507088
     C    -1.5830613368   -1.2178248331    3.7810302428
     C    -1.4289580401   -0.8827169333    2.4437575755
     N    -0.2556868127   -0.4157691748    1.9261388467
     C     0.7973867812   -0.2535500186    2.7757914411
     C     0.7219764828   -0.5529493847    4.1276451276
     S    -0.5259497932   -1.4379531688    6.3754060431
     H    -2.5423380338   -1.6041133827    4.1205810966
     H    -2.2634010014   -1.0062721275    1.7534631148
     H     1.7187067677    0.1242841233    2.3416062817
     H     1.5993771189   -0.4035456480    4.7550395363
     H    -1.8096225666   -1.8752335704    6.4286868090
