37
-1.0642359386362780e+03 frame 1000   xyz file generated by TeraChem
    Co    31.4120307831   23.5524780659 -113.5409331340
     O    33.6361836244   23.7166924411 -113.5870200702
     C    34.4927147674   24.1509130598 -112.5902142272
     C    35.7874508628   24.1406242507 -113.0446139689
     C    35.7497743208   23.6819307686 -114.3867237990
     C    34.4338617450   23.4376562302 -114.6888205165
     H    34.0329284141   24.4027901825 -111.6460260111
     H    36.6604203823   24.4283297187 -112.4736469869
     H    33.9167549821   23.1194582403 -115.5809458731
     H    36.5874820056   23.5530936811 -115.0594818681
     O    31.4957855666   21.7919885773 -114.6494532331
     C    32.3423707675   20.7192448007 -114.3642503828
     C    32.0239280858   19.6589235984 -115.1642308228
     C    30.9323541178   20.0639603391 -115.9838922300
     C    30.6333083620   21.3545342816 -115.6491033847
     H    33.0584922821   20.8790975819 -113.5731253188
     H    32.5137513192   18.6941492084 -115.1599950103
     H    29.9032154436   22.0711129447 -115.9957275816
     H    30.4246645843   19.4735285898 -116.7351362197
     O    30.8343970916   25.2201205061 -112.4716651840
     C    29.8434741829   25.2713635176 -111.4916940233
     C    29.5469522171   26.5722151365 -111.2064875579
     C    30.3762019681   27.3853827461 -112.0333035438
     C    31.1412228375   26.5453971173 -112.7873885078
     H    29.4928245952   24.3200859003 -111.1196217068
     H    28.8191966290   26.9085565878 -110.4799470229
     H    31.8962625630   26.6892070148 -113.5453369928
     H    30.4050823166   28.4664351446 -112.0652769482
     O   -32.2208056591  -24.0420394868  116.2293667908
     C   -32.8066852751  -22.9744330787  116.8144540208
     C   -33.9963717999  -23.3597066091  117.4786068323
     C   -34.1220944320  -24.7230552212  117.2778494742
     C   -33.0035017798  -25.1088660606  116.4998699131
     H   -32.3025205253  -22.0228682646  116.6948295979
     H   -34.6537444402  -22.6957633081  118.0251455229
     H   -32.6753989077  -26.0607681987  116.0996073151
     H   -34.9018424610  -25.3866162434  117.6290557578
