23
-5.1032019911264376e+02 frame 104   xyz file generated by TeraChem
    Fe    -0.2108546137   -0.1086027716   -0.1993903096
     C     2.0707543427   -1.4063639201    0.8450919125
     N     1.6512760216   -0.0518508122    0.3257730490
     H     2.2788663332    0.2467874211   -0.4295138104
     H     1.7549360553    0.6397546516    1.0774469624
     H     1.9089285804   -2.1632572297    0.0734371103
     H     1.4886020669   -1.6379461969    1.7379244297
     H     3.1367813557   -1.3778761145    1.0936545650
     C    -1.5171490222   -1.3124953705   -2.4236094972
     N    -0.1542984066   -0.7344926681   -2.1020570880
     H     0.0755114228   -0.0178010148   -2.7995916026
     H     0.5465573409   -1.4695776150   -2.2498891473
     H    -2.2769922311   -0.5347625428   -2.3172886300
     H    -1.7263871499   -2.1395102070   -1.7408545245
     H    -1.5337452726   -1.6843842762   -3.4520576974
     C    -0.6865451102    2.6619563514    0.6771876190
     N    -0.9330819285    1.6853272369   -0.4463718572
     H    -0.6349925695    2.1089187168   -1.3320487544
     H    -1.9507546945    1.5472188352   -0.5304906604
     H     0.3808410644    2.8824909694    0.7300620261
     H    -1.0428155958    2.2219663417    1.6079177713
     H    -1.2323899157    3.5866705200    0.4667788001
     F    -0.9142811924   -0.3477640128    1.3221922648
