49
-1.1815577342447841e+03 frame 75   xyz file generated by TeraChem
    Mn     0.3795657006   -0.4307306220   -0.3628422653
     O    -0.4351427303   -1.5154328548   -1.6152652180
     C    -1.3640720740   -2.3099927101   -1.0403153466
     C    -1.5168263041   -2.1410716553    0.3550712311
     C    -2.4561313670   -2.8887088134    1.0578020437
     C    -3.2631937521   -3.8387907429    0.3940934496
     C    -4.3124781032   -4.6275767684    1.2010459979
     C    -3.6381512065   -5.3519533350    2.3896329157
     C    -5.3811147156   -3.6494817218    1.7455026462
     C    -5.0332515724   -5.6928123187    0.3520142536
     C    -3.0888381140   -4.0011077062   -0.9865521983
     C    -2.1486531412   -3.2449193279   -1.7069813395
     O    -0.6954336230   -1.2235353247    0.9115064517
     H    -2.5461927414   -2.7162872867    2.1274532945
     H    -2.8946685614   -6.0736766257    2.0317173412
     H    -4.3828159554   -5.8944755387    2.9886130462
     H    -3.1235595208   -4.6484534296    3.0512467987
     H    -5.8852859130   -3.1335678260    0.9201172091
     H    -4.9327164402   -2.8844700293    2.3881449871
     H    -6.1420357291   -4.1834073841    2.3323926043
     H    -5.5772309491   -5.2441943784   -0.4868391032
     H    -5.7620490008   -6.2322259503    0.9703827083
     H    -4.3280095247   -6.4265348366   -0.0548974342
     H    -3.6871184899   -4.7229737980   -1.5332624031
     H    -2.0269838850   -3.3783489960   -2.7793919193
     O     2.2057110013   -0.3500479795   -0.0656700488
     C     2.6847814159    0.9016997017   -0.2142405318
     C     1.7150758373    1.8704456804   -0.5527830683
     C     2.0786237893    3.1995720613   -0.7428512417
     C     3.4242595423    3.6037333982   -0.5989380528
     C     3.7911210220    5.0809336738   -0.8388020340
     C     3.4494756659    5.4678535337   -2.2971993821
     C     2.9889731593    5.9869278852    0.1253110148
     C     5.2887494728    5.3636991249   -0.6103588405
     C     4.3718904829    2.6297473473   -0.2576765321
     C     4.0137078610    1.2843820756   -0.0647795613
     O     0.4588660806    1.3922199345   -0.6696294128
     H     1.2985414095    3.9089502181   -1.0082320724
     H     4.0264387635    4.8588362880   -3.0029124543
     H     3.6794546272    6.5256026660   -2.4886453568
     H     2.3885747018    5.3071486220   -2.5136400056
     H     3.2289137802    5.7497830664    1.1684058271
     H     1.9098747597    5.8555210374   -0.0029526754
     H     3.2229383805    7.0466342090   -0.0485270926
     H     5.5895827382    5.1304575530    0.4173394956
     H     5.4999760050    6.4256460708   -0.7897525766
     H     5.9199593657    4.7788296342   -1.2890245460
     H     5.4160393009    2.9001063965   -0.1358596747
     H     4.7608410456    0.5386741187    0.1967291012
