13
-2.1094985557458708e+03 frame 35   xyz file generated by TeraChem
    Co     0.0006381147    0.0042732532    0.0051231320
     N     2.0199039703   -0.0110744853   -0.0387020931
     C     3.2004378950   -0.0594532040   -0.0669001904
     S     4.8402819019   -0.1309770407   -0.1047638559
     N    -0.8747563791   -1.2059598135   -1.3630640500
     C    -1.3702930855   -1.8965394247   -2.1841875571
     S    -2.0560232488   -2.8533408438   -3.3290024295
     N    -0.3336260546    1.9803330681   -0.2904363591
     C    -0.5639458381    3.1281347031   -0.4530411453
     S    -0.8893734939    4.7217643647   -0.6787842497
     N    -0.8142781576   -0.7551473003    1.6948393660
     C    -1.2672742594   -1.1723357136    2.7036181337
     S    -1.8937087008   -1.7487014157    4.1077315182
