55
-1.3466698426709900e+03 frame 120   xyz file generated by TeraChem
    Fe    -0.5533237865   -0.5687383177    0.4665179994
     C     0.8570105685   -3.3333095826    0.7884144443
     N     0.3174891016   -2.3145076284    0.6768130295
     C     1.5331218030   -4.6124319637    0.9272041158
     H     1.5982486218   -4.8874307898    1.9854644811
     H     2.5445316689   -4.5427935455    0.5106159167
     H     0.9763354103   -5.3879041474    0.3895084879
     C    -0.8468844107   -0.9632313288   -1.4811256396
     N    -0.9810031590   -1.2225560055   -2.6031566767
     C    -2.4919015589   -2.0087107522   -4.4102446083
     C    -2.9193457431   -3.3235406661   -4.1746685779
     C    -4.1969166954   -3.7486323303   -4.5986832172
     C    -5.0431126785   -2.8660283296   -5.2668105732
     C    -4.6181602798   -1.5584727885   -5.5131010160
     C    -3.3413744276   -1.1284182052   -5.0829324477
     H    -2.2607909550   -4.0360234295   -3.6840215389
     H    -4.5057355742   -4.7728796341   -4.4152085719
     H    -5.2601634368   -0.8659082516   -6.0484688726
     H    -3.0220989777   -0.1138019156   -5.3063578667
     H    -6.0196698684   -3.1952207703   -5.6066323590
     C    -1.0941448491   -1.5726963848   -4.0124038092
     H    -0.7732372487   -0.6867587416   -4.5687220142
     H    -0.3567379607   -2.3637271706   -4.1826391604
     C    -1.4031522830    1.1720758831    0.2386846229
     N    -1.9371460550    2.1912137975    0.0893152959
     C    -1.8260424317    4.6736851191    0.1835600809
     C    -0.8602141151    5.1373389703   -0.7237566733
     C    -0.1406521561    6.3217355770   -0.4617405524
     C    -0.3926254580    7.0510375059    0.6980039494
     C    -1.3602335436    6.5992790640    1.5996588389
     C    -2.0763753799    5.4073638075    1.3433956938
     H    -0.6732759081    4.5986699903   -1.6495686527
     H     0.5960832543    6.6682700700   -1.1795295091
     H    -1.5785467746    7.1683750015    2.4979776519
     H    -2.8409366719    5.0870569072    2.0463227667
     H     0.1476934162    7.9714041935    0.8942186259
     C    -2.6503549935    3.4405556219   -0.1339655570
     H    -2.9626295356    3.4212533390   -1.1832725406
     H    -3.5503270846    3.3870931416    0.4861155087
     C    -0.2138194260   -0.1602846260    2.4003639599
     N    -0.0336071980    0.0919092236    3.5174695328
     C     0.8986246486   -0.5540711074    5.7396262759
     C     2.2980999109   -0.5389681516    5.8026459253
     C     2.9859977633   -1.4459066498    6.6383792858
     C     2.2766365793   -2.3611807112    7.4151026145
     C     0.8818900363   -2.3765452504    7.3593686020
     C     0.1910378168   -1.4717928567    6.5215834072
     H     2.8676722714    0.1881869545    5.2290514669
     H     4.0699539403   -1.4102722393    6.6846005017
     H     0.3161957543   -3.0723348824    7.9711941551
     H    -0.8959373507   -1.4825456988    6.5138338311
     H     2.8042355842   -3.0465595708    8.0704773156
     C     0.1571635233    0.4748183317    4.9093628125
     H     0.6928550544    1.4294344376    4.8777433803
     H    -0.8462070229    0.6645748659    5.3034463349
