34
-1.0565591337444525e+03 frame 45   xyz file generated by TeraChem
    Fe     0.0081231125   -0.0846826858    0.0605751183
     C     2.7766768599   -1.4654639128    0.1559490413
     N     2.1155687754   -0.1085586973    0.0598651325
     H     2.4327435330    0.3256554575   -0.8155877515
     H     2.5266420915    0.4961774924    0.7792860280
     H     2.4228183220   -2.0978239080   -0.6601477715
     H     2.5245091900   -1.9283336984    1.1122025824
     H     3.8625364014   -1.3680353221    0.0822960284
     C    -2.0637256266   -1.0496249069   -2.1153308550
     N    -0.7833464732   -1.4213937749   -1.4083008679
     H    -0.0686416132   -1.5672890369   -2.1294174619
     H    -0.9071024453   -2.3528173485   -0.9978233249
     H    -1.9279241015   -0.0947550260   -2.6255140806
     H    -2.8746661526   -0.9706834918   -1.3877512142
     H    -2.3292614827   -1.8085208115   -2.8555577223
     C    -0.3902142264    2.9243000171    0.5014308236
     N    -0.7747180172    1.8179221242   -0.4497132401
     H    -0.4609581078    2.0929092343   -1.3871737298
     H    -1.7964878959    1.8072642543   -0.5308667811
     H     0.6976287094    3.0184102538    0.5218368589
     H    -0.7616979051    2.6888399056    1.5006734492
     H    -0.8168687880    3.8767345856    0.1769292316
     C    -1.8527100909   -1.2947963447    4.5221022822
     C    -2.6655737271   -1.2596329186    3.3594964621
     C    -2.0764200972   -0.9188958009    2.1514884411
     N    -0.7557679126   -0.6146679840    2.0230269351
     C     0.0174872844   -0.6459884072    3.1361730175
     C    -0.4740832134   -0.9752174795    4.3933326872
     S    -2.4207750358   -1.7039549660    6.1100662744
     H    -3.7260568523   -1.4926744804    3.3886162164
     H    -2.6840895255   -0.8925624836    1.2519405809
     H     1.0667983798   -0.3977653461    3.0192758090
     H     0.1974836082   -0.9824912241    5.2479689484
     H    -3.7229930656   -1.9336814479    5.8020244380
