49
-1.2226672233551458e+03 frame 68   xyz file generated by TeraChem
    Co    -0.1213538081    0.0564343548   -0.0043405911
     O    -1.8134224909   -0.2205978691   -0.8210947025
     C    -2.3378074397   -1.3826570757   -0.4515461981
     C    -1.5514769880   -2.1753346370    0.4614566081
     C    -2.0516264254   -3.4150522098    0.8855467305
     C    -3.3064778558   -3.9121187423    0.4487381007
     C    -3.7838886213   -5.2847765302    0.9563091846
     C    -2.7835183716   -6.3850367868    0.5250048533
     C    -3.8781147381   -5.2779343962    2.5018431024
     C    -5.1707207293   -5.6749082927    0.4093016882
     C    -4.0539928227   -3.1274246631   -0.4339124623
     C    -3.5730015881   -1.8759227651   -0.8779928645
     O    -0.3964483227   -1.6644385826    0.8342097833
     H    -1.4309316459   -3.9904526624    1.5725978308
     H    -2.7276517564   -6.4394610172   -0.5689990841
     H    -3.0818152680   -7.3754530916    0.9056308089
     H    -1.7765310800   -6.1648512630    0.8924884369
     H    -4.6032147852   -4.5258794572    2.8357838782
     H    -2.9142903949   -5.0257860408    2.9546215232
     H    -4.1952604781   -6.2593899365    2.8899888339
     H    -5.9336163395   -4.9444934105    0.7027283383
     H    -5.4716375076   -6.6577602974    0.8001919702
     H    -5.1662856023   -5.7320816123   -0.6853734927
     H    -5.0220658658   -3.4659991360   -0.7973258044
     H    -4.1632598218   -1.2724924088   -1.5681028376
     O     1.5713808880    0.3328748624    0.8112353437
     C     2.0965793394    1.4940277222    0.4400938750
     C     1.3096261408    2.2872925122   -0.4718453619
     C     1.8103281940    3.5263993733   -0.8970261798
     C     3.0664750594    4.0222212170   -0.4625024190
     C     3.5446050036    5.3941305021   -0.9714519529
     C     3.6375732581    5.3860172180   -2.5170465692
     C     2.5455335859    6.4955788045   -0.5401575468
     C     4.9321694995    5.7835687912   -0.4257751493
     C     3.8147168014    3.2368662699    0.4189478977
     C     3.3329989203    1.9861253858    0.8643921453
     O     0.1533899258    1.7775514110   -0.8424189240
     H     1.1891935060    4.1021880681   -1.5833694436
     H     4.3618801925    4.6331978380   -2.8509939412
     H     3.9550542979    6.3669388509   -2.9062892519
     H     2.6731775065    5.1341401267   -2.9687709217
     H     2.4906982589    6.5509311065    0.5538549616
     H     1.5380180829    6.2760166600   -0.9065478630
     H     2.8443704641    7.4854198197   -0.9218456290
     H     4.9286554074    5.8411652482    0.6688807224
     H     5.2333933147    6.7660621835   -0.8173301296
     H     5.6943590796    5.0525606238   -0.7195554472
     H     4.7836897512    3.5745776643    0.7807646205
     H     3.9240318870    1.3819346379    1.5531684578
