25
-5.0339939572961799e+02 frame 54   xyz file generated by TeraChem
    Fe    -0.1319140830    0.1126000631    0.1620398309
     N    -0.8433696016   -0.9304833027   -1.3176016616
     N    -0.8801740590   -1.3141520259    1.3663231756
     C    -1.9244575472   -2.0679928268    0.5599040133
     C    -1.3231205665   -2.2930593117   -0.8159813796
     H    -2.0485002238   -2.6912696637   -1.5366943788
     H    -0.4580672024   -2.9624941082   -0.7934108629
     H    -2.8379851297   -1.4633447035    0.5290061055
     H    -2.1701248002   -3.0149785106    1.0546638246
     H    -1.6498439317   -0.3970165594   -1.6867634732
     H    -0.2006943154   -1.0368403483   -2.1168400099
     H    -0.1621928488   -1.9722973233    1.7014890289
     H    -1.2957165612   -0.9323027112    2.2313883105
     N     1.8111631607    0.0086382958    0.3311381469
     N     0.1534472022    1.9411917650   -0.6184889220
     C     1.5335759405    2.3927960645   -0.1666838555
     C     2.4624294284    1.2070028180   -0.3615890488
     H     3.4523563879    1.3688731144    0.0829477734
     H     2.5990814288    0.9452634270   -1.4151203292
     H     1.4617360363    2.7042378417    0.8814871016
     H     1.8541829332    3.2629586680   -0.7515893744
     H     2.0129724099    0.0447921555    1.3462884310
     H     2.2298942991   -0.8760198937    0.0072023243
     H     0.1059925027    1.9514712661   -1.6472031429
     H    -0.5617958860    2.6248361858   -0.3215178118
