40
-1.6354129243657430e+03 frame 61   xyz file generated by TeraChem
    Fe     0.1094560286   -0.0066302550   -0.2751525671
     N     1.7774146080   -0.0198998163   -0.9486583725
     C     2.8329754991    0.0592741875   -1.5723349355
     S     4.2115008648    0.1462427676   -2.3429579756
     C    -2.5085967457   -3.4492331895   -2.2443179131
     C    -1.1762906692   -3.6732061187   -1.8197868364
     C    -0.4589158734   -2.6248820397   -1.2468191385
     N    -1.0024621918   -1.3806132431   -1.0851617679
     C    -2.2869588788   -1.1558059735   -1.4914600261
     C    -3.0640424852   -2.1581951152   -2.0696552526
     C    -3.2767048694   -4.5022057331   -2.8351608651
     H    -0.7058085311   -4.6508849365   -1.9373362141
     H     0.5705339646   -2.7620882966   -0.9114029421
     H    -2.6809853130   -0.1484977381   -1.3472670255
     H    -4.0865405750   -1.9409865603   -2.3833882872
     N    -3.9096422222   -5.3670670249   -3.3183388850
     C    -1.5874680258    4.3015003124   -1.3204784597
     C    -1.3267121071    3.3476478255   -2.3357053564
     C    -0.8998250453    2.0720416180   -1.9754642814
     N    -0.7265637883    1.7063194170   -0.6676847929
     C    -0.9713764888    2.6235566912    0.3163287086
     C    -1.4007823236    3.9179535340    0.0294806136
     C    -2.0283379267    5.6213721604   -1.6533131873
     H    -1.4506498987    3.6024902713   -3.3895820505
     H    -0.6744143120    1.3172836441   -2.7313366352
     H    -0.8156695077    2.2936941623    1.3433561168
     H    -1.5870654954    4.6208615469    0.8431734058
     N    -2.3931326094    6.7049536989   -1.9272796108
     C    -0.6761550393   -0.8461515631    4.3669013102
     C    -1.7837202912   -0.8294779761    3.4837324337
     C    -1.5718970956   -0.5678499266    2.1320929371
     N    -0.3278596453   -0.3187668180    1.6247722015
     C     0.7469177982   -0.3361037814    2.4732107422
     C     0.6117556496   -0.5939342176    3.8367700111
     C    -0.8568169803   -1.1123035872    5.7614422003
     H    -2.7939789796   -1.0210995442    3.8492766148
     H    -2.4000992057   -0.5509367235    1.4235415631
     H     1.7282208437   -0.1420098842    2.0352589189
     H     1.4945975440   -0.5989477538    4.4782195132
     N    -1.0075397322   -1.3298551890    6.9068816813
