9
-4.8250256984344037e+02 frame 26   xyz file generated by TeraChem
    Fe     0.5538088547   -0.5130294400   -0.5630103862
     O     2.4524523343   -0.2021567062   -0.2903192521
     N     4.2398744254    0.9417544878    0.8971137613
     C     3.3418222954    0.4072790239    0.3456815692
     O    -0.5213281608   -1.6151454255   -1.7665715752
     N    -2.7338532925   -2.3379452637   -2.4705608325
     C    -1.6787014044   -1.9601968291   -2.0957881270
     I    -0.4424331744    1.9450977834   -1.0195662640
     I    -0.2552882093   -1.4429328093    1.8325231055
