25
-6.9977899393919108e+02 frame 54   xyz file generated by TeraChem
    Ni    -0.4151228235    0.1667439342   -0.4954293886
     C     1.6178713762    0.1850810623   -0.4540910346
     N     2.7751090943    0.1953853256   -0.4355737786
     C     4.2076725374    0.2109102975   -0.4218711016
     H     4.5741165055   -0.5099958448   -1.1566556897
     H     4.5524545277   -0.0622039269    0.5784853799
     H     4.5507153684    1.2165487846   -0.6768036121
     C    -0.7436913625   -1.5429217436   -1.5625058950
     N    -0.9420179257   -2.5014957170   -2.1804931127
     C    -1.1976006255   -3.6766383079   -2.9583188179
     H    -2.2723759509   -3.8747074370   -2.9507306801
     H    -0.6552057055   -4.5161335013   -2.5163465485
     H    -0.8539632454   -3.5008291976   -3.9808049137
     C    -0.8010623869    2.1595709453   -0.2819858384
     N    -1.0271570518    3.2899952729   -0.1762592227
     C    -1.3158682644    4.6880229405   -0.0615488698
     H    -1.8338300628    4.8638280723    0.8844897762
     H    -1.9512019802    4.9835437396   -0.9003704766
     H    -0.3752499653    5.2437742744   -0.0866877948
     C    -0.8486373636   -0.4904125209    1.3792256464
     N    -1.1011929925   -0.8663284176    2.4443722410
     C    -1.4258280151   -1.3304430641    3.7604958402
     H    -1.2028052595   -2.3982388232    3.8222520076
     H    -2.4898038095   -1.1568427813    3.9400954306
     H    -0.8263508591   -0.7764662344    4.4869312024
