11
-1.3327846121706343e+03 frame 69   xyz file generated by TeraChem
    Fe    -0.2766211969   -0.0454731343    0.0480884413
     I     2.2717381053    0.0928737534    0.0252923742
     S    -0.4297238569   -1.7342721185   -1.7372554846
     H     0.5687274803   -1.3018796970   -2.5349312457
     H    -1.4214451705   -1.3795493860   -2.5849952313
     S    -2.3434112106    1.2192270032   -0.3768600116
     H    -1.9546936220    1.9804362701   -1.4231554783
     H    -2.2720206286    2.2344936267    0.5113617094
     S    -0.6583175638   -0.4101133999    2.4694134476
     H     0.3431771008   -1.2922331831    2.6789199254
     H     0.0602074480    0.6399952898    2.9254780100
