38
-2.0954408558603000e+03 frame 592   xyz file generated by TeraChem
    Co     0.9599773098   -0.6292041737   -0.9821448126
     C     3.9568623706    1.3383695513    2.1884784660
     C     3.9615358340    1.7085485916    0.8277625846
     C     3.0663129644    1.1117776437   -0.0419918603
     N     2.1780403224    0.1680064709    0.3476608530
     C     2.1713761450   -0.1929836165    1.6569174672
     C     3.0199193105    0.3636302636    2.5925636372
     S     5.0318110022    2.0032602341    3.3953459002
     H     4.6504987638    2.4540846381    0.4450753859
     H     3.0515326272    1.3949712454   -1.0897001087
     H     1.4640698098   -0.9633785641    1.9463494421
     H     2.9620269277    0.0334122903    3.6246263323
     H     5.7151138643    2.8291155051    2.5754125741
     C    -1.9490374991   -2.7307206186   -4.1572945697
     C    -0.6352960408   -2.3701788689   -4.5198402918
     C     0.1866376632   -1.7706195754   -3.5841097283
     N    -0.2156751928   -1.4902938587   -2.3189100475
     C    -1.4801470551   -1.8285500933   -1.9689147173
     C    -2.3617766477   -2.4410755523   -2.8383411573
     S    -3.0913258969   -3.5120487395   -5.2233354834
     H    -0.2469786869   -2.5615807860   -5.5145558397
     H     1.2086329281   -1.5089459879   -3.8387209044
     H    -1.7837573335   -1.5994786396   -0.9524630678
     H    -3.3599633113   -2.6922044811   -2.4946374385
     H    -2.2854244264   -3.5937232570   -6.3028540428
     C    -1.4812447223    3.4679273355   -1.3047786896
     C    -0.8588489985    2.8971225646   -2.4323954112
     C    -0.1662279330    1.7069855711   -2.2995878291
     N    -0.0339179778    1.0557336602   -1.1209919457
     C    -0.6264128997    1.6033110308   -0.0321662516
     C    -1.3510228837    2.7779155255   -0.0812147992
     S    -2.3956762334    4.9593556523   -1.3223096791
     H    -0.9138195771    3.3666842230   -3.4088240647
     H     0.3003510061    1.2483241611   -3.1654256856
     H    -0.5090517181    1.0753081749    0.9084949873
     H    -1.8083236742    3.1572905303    0.8268787914
     H    -2.2457592776    5.2299694166   -2.6353689857
     I     2.2560977658   -2.8951603030   -0.7981503858
