41
-1.0766709228395141e+03 frame 51   xyz file generated by TeraChem
    Cr     0.0709655308   -0.0626185597   -0.0086559861
     N    -1.2562788550   -1.0338254181   -1.2859507988
     N    -0.5470533654   -1.6179202664    1.2093540749
     C    -1.4825579664   -0.7260360109   -2.5787995051
     H    -0.9978018330    0.1684711816   -2.9547851085
     C    -2.2832257465   -1.5049703930   -3.4064211947
     H    -2.4363158516   -1.2170290002   -4.4406396849
     C    -2.8688354795   -2.6527379073   -2.8738648850
     H    -3.4985826515   -3.2889468764   -3.4878948939
     C    -2.6284611692   -2.9855443327   -1.5405211321
     H    -3.0623838113   -3.8869307756   -1.1251728656
     C    -2.0790192518   -3.4528673080    1.4080684775
     H    -2.8290241492   -4.1008929686    0.9709813427
     C    -1.7150110689   -3.6225407246    2.7443103343
     H    -2.1757931166   -4.4063985193    3.3372984958
     C    -0.7653327807   -2.7705561046    3.3070123161
     H    -0.4622950900   -2.8631021217    4.3441146214
     C    -0.2078064124   -1.7821264019    2.5042043958
     H     0.5333491395   -1.0932177279    2.8986755434
     C    -1.8158548223   -2.1616929754   -0.7612172180
     C    -1.4842123603   -2.4395340753    0.6556622609
     N     2.0900735112    0.2525332355    0.3687641225
     N     0.3279266657    1.8047680338   -0.8743020844
     C     2.9357406174   -0.6332428613    0.9328310552
     H     2.4952517443   -1.5549298509    1.2990139321
     C     4.3022748955   -0.4020480957    1.0401225130
     H     4.9440490023   -1.1444324699    1.5015511670
     C     4.8134660886    0.7940545313    0.5379304281
     H     5.8753567065    1.0109054624    0.5991414832
     C     3.9462801236    1.7118924082   -0.0557154225
     H     4.3389560817    2.6353611043   -0.4636749541
     C     1.8651579767    3.6216322767   -1.1754712137
     H     2.8604106106    4.0364391570   -1.0701092858
     C     0.8478797359    4.4018299295   -1.7262815399
     H     1.0578017702    5.4146393246   -2.0557335129
     C    -0.4366541861    3.8705305089   -1.8362293755
     H    -1.2573912204    4.4476655214   -2.2476303898
     C    -0.6517940047    2.5692742843   -1.3974116940
     H    -1.6340965733    2.1111865529   -1.4550775417
     C     2.5836912014    1.4222833050   -0.1308138950
     C     1.5835552993    2.3226329636   -0.7508768328
