22
-2.2647079613178535e+03 frame 112   xyz file generated by TeraChem
    Co     0.4078713466    0.0924650485   -0.2394423073
     S     2.7323891632    0.4851989126   -0.4939585067
     C     3.2011453436    0.9477559656    1.0533579960
     N     3.5325952855    1.2511215505    2.1363907898
     S     0.2652895738   -1.5880882145   -1.9162226886
     C    -1.3148285578   -2.0922110029   -1.6652194502
     N    -2.4094971186   -2.4620189690   -1.4586718923
     S    -0.6960187284    1.9515758314   -1.2059529314
     C    -2.2627191909    1.4345334611   -0.8779887438
     N    -3.3461397578    1.0644215614   -0.6219818423
     C    -1.3613724941   -1.1866092902    4.0878855971
     C    -2.1244117668   -1.2468985093    2.9127960792
     C    -1.5503674486   -0.8686997974    1.7101687305
     N    -0.2714492343   -0.4380983294    1.6128080760
     C     0.4645510798   -0.3743530199    2.7447986035
     C    -0.0359056780   -0.7357874479    3.9838924094
     S    -1.9740133595   -1.6418904653    5.6791856828
     H    -3.1563687820   -1.5809618320    2.9179641144
     H    -2.1361232898   -0.9093330703    0.7981658074
     H     1.4813102607   -0.0113500668    2.6484451896
     H     0.6053694096   -0.6604585223    4.8557912187
     H    -3.2178382286   -1.9781776782    5.2812666810
