41
-1.0938188033823567e+03 frame 45   xyz file generated by TeraChem
    Mn     0.2163584815   -0.2103991580   -0.2421650022
     N    -0.7253352964   -1.6300950946   -1.5533024705
     N    -1.2074423482   -1.1501924370    1.0661690730
     C    -0.4506433937   -1.8280360907   -2.8501533148
     H     0.3302390021   -1.2130856572   -3.2889469720
     C    -1.1227379795   -2.7802061017   -3.6393697745
     H    -0.8570293120   -2.8964293653   -4.6854465127
     C    -2.1196143993   -3.5519242765   -3.0471308598
     H    -2.6631148511   -4.2971813858   -3.6203765691
     C    -2.4123148335   -3.3526307289   -1.6973038994
     H    -3.1869123346   -3.9495170815   -1.2324775506
     C    -2.9345774519   -2.8328647488    1.2056186914
     H    -3.5329132003   -3.6051725302    0.7388590051
     C    -3.1349180947   -2.5414677975    2.5555628852
     H    -3.8823597721   -3.0837308465    3.1271310418
     C    -2.3613620682   -1.5474235084    3.1501700314
     H    -2.4782737238   -1.2828115960    4.1964484523
     C    -1.4064042796   -0.8767295935    2.3631249978
     H    -0.7900459991   -0.0980260323    2.8038043781
     C    -1.7034667559   -2.3828964920   -0.9566887111
     C    -1.9619521128   -2.1255811558    0.4672593404
     N     2.3277131638    0.0264872957    0.0603555044
     N     0.4563758167    1.9007877681   -0.5436824927
     C     3.2154513643   -0.9325067986    0.3601834186
     H     2.8302985954   -1.9434444567    0.4589154107
     C     4.5868267276   -0.6777593977    0.5431992296
     H     5.2588476020   -1.4953105554    0.7847047842
     C     5.0442521217    0.6307464492    0.4068305934
     H     6.0949469668    0.8712229923    0.5394845788
     C     4.1275210595    1.6356426159    0.0948792715
     H     4.4797975987    2.6537591356   -0.0124967424
     C     2.0680093671    3.6984363234   -0.5756397306
     H     3.0864404937    4.0493386703   -0.4667676915
     C     1.0646436451    4.6166883575   -0.8881304355
     H     1.3066853995    5.6671292104   -1.0199489339
     C    -0.2443052653    4.1610978134   -1.0260602380
     H    -1.0607306036    4.8343287552   -1.2679949206
     C    -0.5011025250    2.7899248421   -0.8439323088
     H    -1.5125582990    2.4063715911   -0.9437829682
     C     2.7629344607    1.3194235365   -0.0763873634
     C     1.7498520032    2.3342030899   -0.4055036034
