21
-5.2325526106100028e+02 frame 70   xyz file generated by TeraChem
    Co     0.5140549528   -0.4855371590   -0.5215142953
     C     2.9086491522    0.5568061720    1.1164714953
     N     2.0066920925    0.1655147812    0.5022680044
     C     4.0392630251    1.0463026961    1.8869384642
     H     3.7300656744    1.2291586689    2.9225082277
     H     4.4079143049    1.9821808949    1.4519628524
     H     4.8441131039    0.3022871933    1.8752162428
     C    -1.8708463614   -1.5384458611   -2.1707993106
     N    -0.9754278087   -1.1407478298   -1.5512313313
     C    -2.9922763645   -2.0385251350   -2.9477619942
     H    -2.6319391697   -2.7479243062   -3.7017786519
     H    -3.4983064217   -1.2050645378   -3.4481649441
     H    -3.7044512440   -2.5456924335   -2.2868258177
     N     0.7542627601    1.0100328968   -1.8499855150
     H    -0.0531394022    1.6411319370   -1.8374623742
     H     1.5851599012    1.5820448206   -1.6842186054
     H     0.8225315140    0.6469317155   -2.8052441997
     N     0.2463972412   -1.9817735467    0.7999697398
     H    -0.7368391602   -2.2451253989    0.9051206361
     H     0.7421076962   -2.8249443436    0.4909140584
     H     0.6013862525   -1.7605086446    1.7334754366
