29
-4.6871762309246782e+02 frame 92   xyz file generated by TeraChem
    Cr    -0.0182334618   -0.1421186591    0.0963618713
     C     2.8360422452   -0.7655180200    0.4143132958
     N     1.9529806290    0.3887901868   -0.0250374125
     H     2.2390893154    0.6716337301   -0.9738558789
     H     2.1770675611    1.2062614814    0.5605167559
     H     2.6455283629   -1.6421759143   -0.2104282708
     H     2.6642587942   -0.9833231704    1.4714631873
     H     3.8878757959   -0.4805941348    0.2892940721
     C    -1.8511147801   -1.6945510551   -1.8002132657
     N    -0.4013750664   -1.4561594934   -1.3975723144
     H     0.1107695802   -1.1599035324   -2.2425205229
     H     0.0129949768   -2.3730878408   -1.1692289811
     H    -2.2865616300   -0.7631135896   -2.1661518370
     H    -2.4132930909   -2.0862054183   -0.9506739690
     H    -1.8705351229   -2.4343900409   -2.6080364357
     C    -0.6618754852    2.7821468798    0.5594926669
     N    -0.8169975506    1.6381684777   -0.4321907396
     H    -0.4615265494    1.9597910423   -1.3448608260
     H    -1.8254403651    1.4926364374   -0.5929305513
     H     0.3864400315    3.0797706158    0.6215852323
     H    -1.0487646039    2.4865688169    1.5371296554
     H    -1.2461263850    3.6360139453    0.1972210604
     C    -0.4757504348   -0.5260607380    3.0066245908
     N    -0.9496667020   -1.0752459925    1.6702008533
     H    -1.9745022624   -0.9710582308    1.6269005942
     H    -0.8043061059   -2.0956747447    1.6795985780
     H    -0.6630737216    0.5496323501    3.0563214456
     H     0.5852496813   -0.7481183403    3.1428299195
     H    -1.0392113462   -1.0106851797    3.8127803234
