13
-1.2584304041472287e+03 frame 64   xyz file generated by TeraChem
    Fe     0.1331067384   -0.1516421158   -0.1791512770
     N     1.8036636729    0.1889596203    0.6582571202
     C     2.8603535725    0.3696354635    1.1863370112
     S     4.2825271676    0.6143298266    1.8941331184
     N    -1.1512101461   -0.7386581136   -1.4371756161
     C    -1.9663597218   -1.0841395018   -2.2394227863
     S    -3.0596941553   -1.5536843584   -3.3198754472
     O    -0.1576739604    1.8484909059   -0.5065273352
     H     0.7021308419    2.3050156324   -0.5113253785
     H    -0.5925143458    2.0178599487   -1.3598926772
     O    -0.4192587744   -1.5784075484    1.1950248017
     H    -0.7429695337   -2.3863402618    0.7617108938
     H     0.3466308564   -1.8164864018    1.7458076786
