17
-5.1472461497072754e+02 frame 44   xyz file generated by TeraChem
    Fe     0.1480940710   -0.2374424572   -0.2657116095
     C     3.0731074573   -0.8206064909    0.3930577511
     N     2.2176765983    0.0726599359   -0.4569582311
     H     2.5368046845    0.0431722315   -1.4293463617
     H     2.3474561650    1.0481809936   -0.1685045557
     H     2.9930039507   -1.8440740882    0.0224127665
     H     2.7053650593   -0.7836309959    1.4190077844
     H     4.1171751172   -0.5007904941    0.3571695993
     C    -2.2625850701   -1.4819229180   -1.4089589566
     N    -0.7740314143   -1.5390637166   -1.6285911000
     H    -0.5664976617   -1.3076105542   -2.6036699724
     H    -0.4519389081   -2.5009777952   -1.4904930772
     H    -2.6079315152   -0.4664494472   -1.6092107674
     H    -2.4705217208   -1.7363447428   -0.3678224067
     H    -2.7737301348   -2.1861708046   -2.0696909504
     F    -0.6060550768    1.2984561712   -0.5237717392
     F    -0.0701147512   -0.9991664324    1.2744588274
