15
-1.3346536320204032e+03 frame 85   xyz file generated by TeraChem
    Fe     0.1070910366   -0.1360327862   -0.2351317689
     N     1.9722327887    0.1330961487    0.0445779195
     C     3.1566862886    0.2453916083    0.1739875302
     S     4.7393099265    0.4210819174    0.3571493733
     N    -1.2366715045   -0.8666319571   -1.3672489652
     C    -2.0273858710   -1.3207897379   -2.1424209032
     S    -3.1013480192   -1.9331909181   -3.1619615683
     C     0.3324615783    2.8685556543    0.2941583310
     O    -0.4308750448    1.9360197204    0.1003337059
     H    -0.0629037557    3.8894326578    0.4079500628
     H     1.4193078639    2.7140390102    0.3579738967
     C    -1.7060358532   -1.5488345222    1.7803997750
     O    -0.6867811586   -0.8919037540    1.6393343482
     H    -2.0034756235   -1.8959298981    2.7817334829
     H    -2.3435831896   -1.8110898854    0.9228518117
