13
-2.0506121449200259e+03 frame 34   xyz file generated by TeraChem
    Cr     0.1611387655    0.3722205551   -0.1098722178
     S     2.4163323553    0.6970961415   -0.4633972721
     C     3.2456592541   -0.3612870235    0.5708994218
     N     3.8619056695   -1.0645386722    1.2732393602
     S    -0.8750876526   -0.5609758554   -1.9127985550
     C    -0.1065541946   -2.0735108171   -1.9715863953
     N     0.3929752968   -3.1271789811   -2.0575994827
     S    -0.3245397438    2.6036887985   -0.4229204085
     C    -1.9862889360    2.6054712978   -0.7737131627
     N    -3.1252148563    2.6510576292   -1.0349522782
     S     0.2546666577   -0.6425394704    1.9258983422
     C    -1.3945170073   -0.5689061746    2.3318563917
     N    -2.5208756563   -0.5307246519    2.6448944694
