31
-1.2848212064541863e+03 frame 55   xyz file generated by TeraChem
    Mn     0.3136482353   -0.1516708930   -0.0478250340
     N     2.1336675927    0.0833379048    0.2219432041
     C     3.3083951441    0.2757879325    0.4275082873
     S     4.8505473047    0.5235971660    0.6905806185
     O    -1.0357348250   -1.0670926193   -1.3910752569
     C    -1.2418451528   -2.4519494559   -1.4561506042
     C    -1.7404217821   -2.7727385859   -2.6680717330
     C    -1.8608517020   -1.5490612768   -3.4206188740
     C    -1.4276794718   -0.5452681904   -2.6298941405
     H    -0.9800851137   -3.0031409612   -0.5663413207
     H    -2.0004380857   -3.7670256208   -3.0031792890
     H    -1.3299385188    0.5235562766   -2.7350077652
     H    -2.2304871990   -1.4446729007   -4.4310418400
     O    -0.3820064677    1.8289840189   -0.3612623608
     C    -1.6990221601    2.2986777067   -0.3797505116
     C    -1.6945099843    3.6368155810   -0.5587206307
     C    -0.3174439049    4.0501712877   -0.6574308092
     C     0.4456091142    2.9443814898   -0.5321997592
     H    -2.4637708619    1.5509752882   -0.2420401660
     H    -2.5672978032    4.2725576373   -0.6109902498
     H     1.5017757885    2.7305841905   -0.5242719849
     H     0.0475976034    5.0572953750   -0.8013237783
     O    -0.6096712222   -1.0675873456    1.6478731183
     C     0.0943278412   -1.2235087562    2.8469416005
     C    -0.7621120945   -1.6007223951    3.8196680832
     C    -2.0729868342   -1.6909872353    3.2271536432
     C    -1.9470782971   -1.3634239831    1.9235674738
     H     1.1539733349   -1.0289542100    2.7891208298
     H    -0.5020350649   -1.8006008211    4.8495976711
     H    -2.6196327777   -1.3026505646    1.0827510124
     H    -2.9905713186   -1.9717985488    3.7249776184
