29
-1.6019258029622333e+03 frame 36   xyz file generated by TeraChem
    Fe     0.0455861218   -0.0264515572   -0.0095658558
     S     2.4754006643   -0.4171324081   -0.3904894577
     C     2.6496087072    0.8226945104   -1.5093785502
     N     2.7320017243    1.6991791570   -2.2841419107
     S     0.0165312301   -1.7558245035   -1.8014535134
     C    -0.2496760319   -3.0560564726   -0.7738911518
     N    -0.4398760128   -3.9416478692   -0.0288514321
     C    -2.6826137140    3.6953871700   -1.4823510129
     C    -1.3397976859    3.6237446832   -1.8540573762
     C    -0.5666306480    2.5657526197   -1.3917377327
     N    -1.0776176529    1.6009643173   -0.5901705066
     C    -2.3812537168    1.6743285821   -0.2316605911
     C    -3.2116396727    2.7019455965   -0.6552558586
     H    -3.3087066999    4.5107984836   -1.8315455089
     H    -0.8890624941    4.3729720717   -2.4957392666
     H     0.4789431761    2.4738956508   -1.6694645917
     H    -2.7523249490    0.8836499018    0.4142269135
     H    -4.2504480139    2.7184345108   -0.3440425028
     C    -0.5976211308   -0.6601995561    4.7578282223
     C    -0.3554099414    0.6068369581    4.2222595875
     C    -0.2161679182    0.7345389121    2.8478514903
     N    -0.3084326501   -0.3226655886    2.0063353898
     C    -0.5428182452   -1.5499743311    2.5289948767
     C    -0.6923436445   -1.7527476314    3.8956206739
     H    -0.7090260388   -0.7921905144    5.8297461120
     H    -0.2722226492    1.4830237396    4.8560059843
     H    -0.0305027118    1.7029466949    2.3918102480
     H    -0.6026164464   -2.3778900812    1.8295770114
     H    -0.8779949485   -2.7541721920    4.2683630978
