21
-1.2970639914066560e+03 frame 98   xyz file generated by TeraChem
    Fe     0.2803948733   -0.3006401972    0.2979523975
     S     2.5415269797    0.0100952831    0.7896222560
     C     2.7093546805    1.1350704677   -0.4574486257
     N     2.7510940819    1.9157151225   -1.3287509755
     S     0.2253451330   -2.0228017803   -1.3071632569
     C    -1.4087424900   -1.6188036031   -1.1325037605
     N    -2.4827649380   -1.2069035779   -0.8926531934
     C    -0.5641164201    2.6466544774    0.0342100222
     N    -0.3819666525    1.3873032046   -0.7519074808
     H     0.3055198473    1.5636599796   -1.4921144619
     H    -1.2594885139    1.1390238589   -1.2184840665
     H     0.3863052110    2.9177384625    0.4967592269
     H    -1.3205781440    2.4892530852    0.8058031273
     H    -0.8866387051    3.4619544524   -0.6186052707
     C    -1.9210930133   -0.2348919098    2.4114878756
     N    -0.7091226584   -1.0151331727    2.0013015722
     H    -0.9868104070   -1.9787236479    1.7940352087
     H    -0.0565330109   -1.0804881716    2.7874694374
     H    -2.6257766216   -0.2285943195    1.5776906940
     H    -1.6190851428    0.7840181388    2.6616639588
     H    -2.3955364562   -0.6910066448    3.2841564809
