50
-1.2312128515338511e+03 frame 87   xyz file generated by TeraChem
    Fe    -0.1766515932    0.5301212346   -0.4361044175
     C     1.6365205211   -0.2814553413   -0.6516275148
     N     2.6716258598   -0.8051596331   -0.7873453466
     C     5.1665514456   -1.0310041862   -0.8104331255
     C     5.3819207102    0.2952286979   -0.3921906993
     C     6.6788147038    0.7457072541   -0.2328172395
     C     7.7994156286   -0.1333417878   -0.4916961259
     C     7.5880749581   -1.4636584217   -0.9111302207
     C     6.2960183907   -1.9110991716   -1.0694319468
     H     4.5439570718    0.9555345136   -0.1979943551
     H     6.8771496041    1.7643615168    0.0881861479
     H     8.4322380126   -2.1182538884   -1.1040037405
     H     6.1071105230   -2.9324292565   -1.3919007567
     H     8.8096103757    0.2463890485   -0.3582835599
     C     3.8057679589   -1.6450754818   -1.0229464163
     H     3.7061766236   -2.5291513759   -0.3736762045
     H     3.7377832056   -2.0193708285   -2.0561826802
     C    -1.2923277482   -0.2451730651   -5.0338941333
     C    -0.2138619943    0.5819543779   -4.7070257418
     C     0.1046285026    0.7745288490   -3.3697783334
     N    -0.6083552413    0.2072272123   -2.3662628648
     C    -1.6600574584   -0.5834153765   -2.6863824400
     C    -2.0206313887   -0.8420062377   -4.0032272798
     H    -1.5616501975   -0.4167449379   -6.0717483897
     H     0.3736869575    1.0723209607   -5.4760479518
     H     0.9401258337    1.4061797197   -3.0811949050
     H    -2.2252834439   -1.0023811190   -1.8601640476
     H    -2.8667577751   -1.4888282435   -4.2099176313
     C    -4.4083878285    2.7066476146    0.0906108781
     C    -3.4764191033    3.1644566786   -0.8428042726
     C    -2.2705099692    2.4887703472   -0.9765806486
     N    -1.9520150255    1.4129876005   -0.2162299705
     C    -2.8555399776    0.9789741191    0.6958860882
     C    -4.0905641567    1.5899864456    0.8674639024
     H    -5.3637650328    3.2087554073    0.2097385720
     H    -3.6794921255    4.0277899122   -1.4674913933
     H    -1.5357239747    2.8024169616   -1.7107424530
     H    -2.5720628100    0.1226587838    1.2983915964
     H    -4.7855816196    1.1972929266    1.6020533576
     C     0.3512831935    0.9727921473    4.3124825976
     C     0.3656414499    2.0927813086    3.4776959106
     C     0.2495639139    1.9129581517    2.1046059734
     N     0.1368651871    0.6853276590    1.5456131993
     C     0.1354736500   -0.3993167734    2.3557555412
     C     0.2318163441   -0.2946523453    3.7378572352
     H     0.4289018809    1.0856677259    5.3896745471
     H     0.4546996260    3.0960310183    3.8811238553
     H     0.2344885808    2.7665568221    1.4329005145
     H     0.0454686169   -1.3663836065    1.8700432245
     H     0.2119984375   -1.1923304902    4.3468890004
