9
-4.7535337308588896e+02 frame 41   xyz file generated by TeraChem
    Mn     0.0032682504   -0.0105273385    0.0025135798
     C     1.8491468176    0.2645657462    0.3104740744
     N     2.9928451097    0.4350534803    0.4996472373
     C    -0.2290012144   -1.0769741038   -1.5445747060
     N    -0.3729259284   -1.7323466740   -2.5050680413
     C    -0.8435882558    1.6582665034   -0.2695074139
     N    -1.3678818471    2.6923724782   -0.4387317674
     C    -0.7743178476   -0.8553968723    1.5064537676
     N    -1.2576573804   -1.3750741744    2.4387748597
