13
-1.7148406412034738e+03 frame 24   xyz file generated by TeraChem
    Mn    -0.3436175410   -0.0869729126   -0.0938279381
     O     2.0816341920   -0.0914609451   -0.0105214567
     C     2.8220106431    0.4645798829    1.0004635395
     C     4.1409770117    0.4046385265    0.6844817841
     C     4.2253462535   -0.2314338686   -0.6041678444
     C     2.9523460210   -0.5153020797   -0.9819493141
     H     2.2466758381    0.8178989679    1.8417325350
     H     4.9599114820    0.7639568252    1.2924754666
     H     2.4824511706   -0.9880482333   -1.8305141027
     H     5.1213022971   -0.4502712585   -1.1688967544
    Cl    -0.3489948544   -1.7430017703   -1.7682700966
    Cl    -0.7002378990    2.1856671795   -0.5574363014
    Cl    -0.6655548817   -0.5307832154    2.1963593075
