15
-1.7153596347827877e+03 frame 34   xyz file generated by TeraChem
    Cr     0.1424292389    0.2457679297    0.2969517280
     C     4.8601831967   -0.3019793639   -0.2511300040
     C     4.1644804960    0.6375890763   -1.0116246352
     C     2.7980293440    0.7869825518   -0.8129041522
     N     2.1313390220    0.0446428322    0.0956873001
     C     2.7980710657   -0.8641862854    0.8376810704
     C     4.1645303684   -1.0628252572    0.6881850778
     H     5.9289757367   -0.4375382663   -0.3867837763
     H     4.6661296248    1.2530568251   -1.7501680456
     H     2.2100393630    1.5097114707   -1.3666276670
     H     2.2101282817   -1.4182001154    1.5602264063
     H     4.6662040817   -1.8015843602    1.3033735295
    Cl    -0.4612679977   -1.2633596259   -1.2117629543
    Cl    -0.1720258852    2.4099642900    0.0006136585
    Cl    -0.1718891055   -0.0503095458    2.4611519314
