25
-1.0928665762864832e+03 frame 60   xyz file generated by TeraChem
    Mn    -0.2571500171    0.3390309116    0.1177845953
     C     2.7700069212   -0.2860004834   -0.5862214914
     O     1.6592383703    0.0578129312   -0.1673662102
     H     2.9190853757   -1.2754472788   -1.0383479908
     H     3.6196484001    0.4040293061   -0.5020548234
     C    -1.7582458684   -1.1531014881   -2.1654341990
     O    -1.4687499794   -0.8320109357   -1.0071476527
     H    -2.5998757935   -1.8354633243   -2.3389497214
     H    -1.1941912511   -0.7740302488   -3.0282552756
     C    -1.7263721007    3.1456973561   -0.1166631740
     O    -1.0984578166    2.0845337756   -0.1919518325
     H    -2.4154646607    3.3343847559    0.7167841648
     H    -1.5944720113    3.9088459820   -0.8943500438
     C    -0.8400540733   -1.7767884395    4.4956161569
     C    -1.7107069137   -2.0898021878    3.4194923021
     C    -1.5012954707   -1.4664361985    2.1970283742
     N    -0.5045624620   -0.5640331170    1.9926670445
     C     0.3393689510   -0.2747062153    3.0148014346
     C     0.2112923988   -0.8441463031    4.2756866183
     S    -0.9588922041   -2.4654084955    6.0834876756
     H    -2.5315010385   -2.7935672196    3.5236633711
     H    -2.1464365865   -1.6815546045    1.3519937222
     H     1.1331692972    0.4404561928    2.8212602315
     H     0.9058569785   -0.5658309383    5.0640909540
     H    -2.0352345006   -3.2669795725    5.8733133682
