27
-1.4606895816446286e+03 frame 81   xyz file generated by TeraChem
    Co     0.1773608440   -0.1166483824    0.5588779064
     C     4.6424874336   -0.1547561612   -1.1081782839
     C     3.5843558875    0.4140076146   -1.8380428514
     C     2.3031364490    0.3826507103   -1.3145777063
     N     2.0118933084   -0.1629189863   -0.1149781895
     C     3.0266883133   -0.7094215315    0.5932456386
     C     4.3316918312   -0.7325468693    0.1366874148
     S     6.3135803846   -0.1883964904   -1.6509019060
     H     3.7463699232    0.8788621749   -2.8046576399
     H     1.4742459702    0.8100820405   -1.8696976036
     H     2.7720854044   -1.1262417361    1.5618099581
     H     5.1006712467   -1.1859834618    0.7533921437
     H     6.1208166201    0.4726218522   -2.8104698595
     C    -1.3848406222   -2.9444639830   -2.9428676700
     C    -0.4632126423   -3.4014083461   -1.9850388599
     C    -0.0268096388   -2.5371839957   -0.9954210775
     N    -0.4543859210   -1.2615784551   -0.8926810169
     C    -1.3443635718   -0.8167592067   -1.8091944671
     C    -1.8193485839   -1.6100904481   -2.8373721647
     S    -2.0209285743   -3.9296619515   -4.2518538247
     H    -0.0836167792   -4.4174053881   -2.0018891109
     H     0.6916956241   -2.8690530949   -0.2530597952
     H    -1.6911222209    0.2057251268   -1.6987433140
     H    -2.5327886958   -1.1946344276   -3.5414339550
     H    -1.3707667261   -5.0662200420   -3.9291389030
     I     0.7384739676    1.4880505599    2.5607849156
     I    -2.1584772699    0.0261962756    1.7550112799
