38
-2.5226462706851598e+03 frame 46   xyz file generated by TeraChem
    Fe    -0.1354339927   -0.0898588900   -0.2599797714
     C     4.6079455671   -0.6163215152    0.5141719745
     C     4.1053853471    0.5343212127   -0.1353931048
     C     2.7500563159    0.6534538860   -0.3543533386
     N     1.8532399684   -0.2985775260    0.0234624212
     C     2.3312620615   -1.4084973841    0.6561643154
     C     3.6711437971   -1.5996056465    0.9086342762
     S     6.2897859775   -0.8960205373    0.8630758433
     H     4.7642040347    1.3325252272   -0.4604435096
     H     2.3462902557    1.5365322947   -0.8394603966
     H     1.5988506699   -2.1452939204    0.9679406039
     H     3.9893880683   -2.5033956162    1.4181248935
     H     6.7631183059    0.2552695896    0.3422117284
     C    -1.5323628161   -2.5824133820   -4.1476718048
     C    -0.2309173564   -2.0343491647   -4.0738031633
     C     0.1396343101   -1.3113807993   -2.9607745933
     N    -0.6994706110   -1.0876067810   -1.9124338729
     C    -1.9536149144   -1.6218062087   -1.9727739400
     C    -2.3963249257   -2.3534946756   -3.0514968629
     S    -2.1335197594   -3.5187700596   -5.4853256122
     H     0.4879151314   -2.1758586674   -4.8738571285
     H     1.1384798064   -0.8932740040   -2.8819931016
     H    -2.5972730989   -1.4555533950   -1.1151159782
     H    -3.4044433503   -2.7550009978   -3.0407343189
     H    -1.0103524137   -3.4869523196   -6.2326596274
     C    -1.3426195974    4.5710409029   -0.4679178768
     C    -1.2031445473    3.8001375064   -1.6451160641
     C    -0.8344578056    2.4756383125   -1.5508146347
     N    -0.5860640140    1.8621568910   -0.3607582341
     C    -0.7268427804    2.5978317962    0.7794131073
     C    -1.0896367033    3.9253194691    0.7651223861
     S    -1.8083691637    6.2468875463   -0.4361841729
     H    -1.3871498607    4.2271776709   -2.6252185448
     H    -0.7379197126    1.8679012529   -2.4459232121
     H    -0.5445544188    2.0795051040    1.7145153682
     H    -1.1864347641    4.4578636915    1.7056874542
     H    -1.9492094777    6.4076826537   -1.7685690299
    Cl    -1.0974618394   -0.9707706889    1.4877572272
