27
-1.5788564575043247e+03 frame 80   xyz file generated by TeraChem
    Cr     0.1973261269   -0.2411520516    0.1999513326
     C     4.6863671582    0.7859772970   -1.0998837196
     C     3.5941539611    1.4464328509   -1.6921836883
     C     2.3072461682    1.1170131628   -1.3107739088
     N     2.0504847292    0.1672557135   -0.3799767072
     C     3.0956766407   -0.4720064562    0.2033484222
     C     4.4063629377   -0.1937289536   -0.1266085653
     S     6.3647803259    1.1111542775   -1.4937200643
     H     3.7365952296    2.2188901491   -2.4401581526
     H     1.4411144062    1.6171936615   -1.7270016817
     H     2.8440677917   -1.2058809133    0.9604701027
     H     5.2044141600   -0.7302806759    0.3755116436
     H     6.1328788026    2.0772854988   -2.4055697669
     C    -1.4554154948   -3.7832339309   -2.5639331695
     C    -0.8869232909   -4.0541581794   -1.3055237626
     C    -0.4058393077   -3.0127901566   -0.5349413262
     N    -0.4584109244   -1.7227054830   -0.9470438351
     C    -1.0127741859   -1.4478034977   -2.1551210321
     C    -1.5118594048   -2.4373075167   -2.9776039730
     S    -2.0973426033   -5.0103349531   -3.6400682266
     H    -0.8198080384   -5.0654811302   -0.9193367089
     H     0.0282926496   -3.1877810148    0.4427823102
     H    -1.0614749460   -0.4015673738   -2.4355886315
     H    -1.9485754456   -2.1619057105   -3.9318030136
     H    -1.8401451961   -6.0718299200   -2.8489232496
     F    -0.5291611315    1.1601001946   -0.5661652096
     F     0.4598012988   -1.0617349602    1.7130691015
