24
-7.1415922031957780e+02 frame 120   xyz file generated by TeraChem
    Fe    -0.1988887826    0.4805546573    0.3598402988
     C     2.2243362300    1.6140081416    1.6441879794
     O     1.5743824176    0.6681134048    1.1766798110
     H     3.2564050943    1.4334777821    1.9700639092
     H     1.7946750993    2.6194918634    1.7438779114
     C    -2.5484863669   -0.0007857818   -1.4528879723
     O    -1.9574504755    0.1703399866   -0.3784349871
     H    -3.6434896099   -0.0693505697   -1.4481482015
     H    -2.0097316406   -0.0913788304   -2.4055038008
     C     0.2129625822    2.8469060949   -1.5073159256
     O     0.0136343474    2.1808730779   -0.4836718552
     H     0.2144350624    3.9416228715   -1.4314094064
     H     0.3916787463    2.3718248205   -2.4811437709
     C    -0.9218932078   -3.2798761401    3.5364827301
     C    -1.9301540702   -2.3581479551    3.2577529947
     C    -1.6921841633   -1.2908473343    2.3031164541
     N    -0.5094367204   -1.1097713479    1.6768417685
     C     0.4720377745   -1.9897092096    1.9658020676
     C     0.2947546257   -3.1063321350    2.8776078310
     H    -1.0771605469   -4.0981554571    4.2365399463
     H    -2.9109317519   -2.4172513986    3.7274619220
     H    -2.4961359522   -0.5983751304    2.0643475149
     H     1.4388896708   -1.8323620114    1.4939047811
     H     1.1364082159   -3.7795421028    3.0338668817
