49
-2.6713645257428830e+03 frame 11   xyz file generated by TeraChem
    Cr    -0.0395360386   -0.0126224991   -0.0383388535
     C     4.6505933097    0.3265979690    0.8155741672
     C     3.7940205913    1.4512348425    0.9164605600
     C     2.4547614909    1.3228771092    0.6243935283
     N     1.8926708380    0.1428073976    0.2220156710
     C     2.7123586105   -0.9513326863    0.1368560280
     C     4.0564855293   -0.8987364258    0.4132992579
     S     6.3499219883    0.3380476380    1.1465347826
     H     4.1719189330    2.4221010817    1.2198044810
     H     1.7950445317    2.1818248930    0.7030132635
     H     2.2475989691   -1.8820531512   -0.1733973579
     H     4.6519186820   -1.8012969906    0.3178173915
     H     6.4538455680    1.6441616767    1.4715333673
     C    -1.2176780330   -2.7583904375   -3.7574134322
     C     0.0437574767   -2.1154221862   -3.6827070093
     C     0.3669684184   -1.3656639688   -2.5749878327
     N    -0.4784413449   -1.2122424493   -1.5106055745
     C    -1.7046163721   -1.8186926701   -1.5818917982
     C    -2.0962056217   -2.5800228526   -2.6556373718
     S    -1.7586690597   -3.7320380670   -5.0821296267
     H     0.7688132162   -2.2015883529   -4.4853294080
     H     1.3293617214   -0.8669123087   -2.5101597264
     H    -2.3676582502   -1.6799581357   -0.7327753265
     H    -3.0785265260   -3.0419148556   -2.6470253093
     H    -0.6493895025   -3.6206871191   -5.8433904444
     C    -2.2203571088    4.0464191977   -1.2884443968
     C    -0.9236035606    3.7253767785   -1.7651401739
     C    -0.3055467116    2.5721195114   -1.3418764020
     N    -0.8784843923    1.6993931610   -0.4571949648
     C    -2.1382894592    1.9958841564   -0.0056518800
     C    -2.8166199169    3.1292292957   -0.3833656552
     S    -3.1172136234    5.4590303586   -1.7300805337
     H    -0.4019087340    4.3736855851   -2.4615162695
     H     0.6865308732    2.3146966709   -1.7006694133
     H    -2.5867434521    1.2906552638    0.6868149122
     H    -3.8079561332    3.3110531175    0.0199546929
     H    -2.1989279153    5.9926899699   -2.5633412406
     C    -1.3424875043   -1.6313699038    4.2586042758
     C    -1.1761801243   -2.5074874918    3.1569220704
     C    -0.8377342497   -2.0010375515    1.9224976381
     N    -0.6588351025   -0.6649208187    1.6925360486
     C    -0.8050501027    0.1866195424    2.7552761822
     C    -1.1402549450   -0.2469574880    4.0145468737
     S    -1.7672041598   -2.1231153620    5.8631829797
     H    -1.3131915040   -3.5787120761    3.2622340593
     H    -0.7106437942   -2.6677792893    1.0747429136
     H    -0.6474909797    1.2427791155    2.5596459724
     H    -1.2488825795    0.4805842350    4.8128667823
     H    -1.8473390446   -3.4487241468    5.6211151856
