53
-1.4667992526162579e+03 frame 83   xyz file generated by TeraChem
    Ni    -0.0067747060   -0.0019273012    0.0146713034
     C     1.5196344517    0.7766389749    0.7939624105
     N     2.4638764965    1.2557368104    1.2733779940
     C     3.5938083521    1.8243208895    1.8457114422
     C     3.7106660833    3.2222771485    1.8744715778
     C     4.8471957222    3.7786512220    2.4520006570
     C     5.8437112752    2.9529384566    2.9831083207
     C     5.7112305829    1.5608602151    2.9437387811
     C     4.5819671590    0.9807292029    2.3757484085
     H     2.9256428471    3.8463559797    1.4606025187
     H     4.9556430768    4.8576614783    2.4882258715
     H     6.4893769265    0.9264578780    3.3552825769
     H     4.4629568982   -0.0967937993    2.3326442716
     H     6.7278914843    3.3964863513    3.4300440825
     C    -1.5332101027   -0.7805825680   -0.7644780605
     N    -2.4774909782   -1.2592914326   -1.2442073484
     C    -3.6075412267   -1.8307198011   -1.8134564967
     C    -4.5963791749   -2.3604457521   -0.9704714735
     C    -5.7257830279   -2.9274298135   -1.5513097414
     C    -5.8577408625   -2.9661323610   -2.9434573217
     C    -4.8605437930   -2.4353714872   -3.7685679678
     C    -3.7238585811   -1.8588503494   -3.2114691441
     H    -4.4777796543   -2.3178575218    0.1071163219
     H    -6.5044650962   -3.3387143865   -0.9173971996
     H    -4.9685741321   -2.4710857200   -4.8476370104
     H    -2.9383000581   -1.4452587429   -3.8350559040
     H    -6.7420549562   -3.4122768831   -3.3875338391
     C    -0.0059753180    1.3290769696   -1.3167582542
     N    -0.0051658963    2.1506532316   -2.1387713121
     C    -0.0042638526    3.1326335902   -3.1210161891
     C    -1.2203972146    3.7325649946   -3.4810649407
     C    -1.2060366809    4.7164635122   -4.4642306227
     C    -0.0024096008    5.0853605466   -5.0741859469
     C     1.2002950374    4.4743598918   -4.7040182616
     C     1.2127722553    3.4914071535   -3.7198821748
     H    -2.1433684815    3.4352707192   -2.9944126547
     H    -2.1348940551    5.1962610456   -4.7547186587
     H     2.1298814423    4.7638512352   -5.1830071277
     H     2.1349989773    3.0039431643   -3.4216075838
     H    -0.0016884657    5.8528229921   -5.8418237191
     C    -0.0075209708   -1.3321692535    1.3454658537
     N    -0.0084990236   -2.1538164044    2.1676215364
     C    -0.0099313064   -3.1351496422    3.1498042318
     C    -0.4102772422   -4.4359386368    2.8084011821
     C    -0.4057837670   -5.4106260775    3.8005596946
     C    -0.0131408894   -5.0872369758    5.1037320203
     C     0.3811349456   -3.7844131295    5.4265365091
     C     0.3888684507   -2.7931864611    4.4509216338
     H    -0.7076257453   -4.6681816200    1.7912034006
     H    -0.7080893984   -6.4239068603    3.5571895991
     H     0.6821745332   -3.5405827740    6.4400840284
     H     0.6875169532   -1.7762632847    4.6826970308
     H    -0.0144185797   -5.8544143215    5.8716421629
