29
-1.5647962477890112e+03 frame 59   xyz file generated by TeraChem
    Cr    -0.1149299218   -0.4286219165   -0.3364499253
     S     2.1266964267   -0.1122977794   -0.6486698298
     C     2.2764112348    1.3157518382    0.2508825107
     N     2.3242998591    2.3056434524    0.8716962159
     S    -0.1749728595   -2.1466770306   -2.0265050427
     C    -1.6318974557   -1.8529926999   -1.2609466259
     N    -2.4531761161   -1.4070842746   -0.5351324611
     C    -2.2086232005    3.7990549687   -1.1925305396
     C    -1.0129283130    3.4571727901   -1.8247873763
     C    -0.4140745351    2.2427918956   -1.5217448734
     N    -0.9607498936    1.3746434891   -0.6344080701
     C    -2.1290534424    1.7020951711   -0.0293763346
     C    -2.7725047670    2.9047341807   -0.2804686208
     H    -2.6953377421    4.7451848181   -1.4084392529
     H    -0.5397110275    4.1193294676   -2.5413042339
     H     0.5194417865    1.9429345408   -1.9823933798
     H    -2.5459181744    0.9677702742    0.6485455993
     H    -3.7045665581    3.1262887114    0.2275880710
     C    -0.4918538897   -0.9875453729    4.4036515849
     C    -0.0460556543    0.2347232824    3.8985271128
     C     0.0283380972    0.4119356985    2.5239083532
     N    -0.3304277249   -0.5679705408    1.6608809557
     C    -0.7660522661   -1.7549233559    2.1487966133
     C    -0.8556013678   -1.9979314220    3.5117383581
     H    -0.5527612072   -1.1515595979    5.4751179358
     H     0.2534436787    1.0448033724    4.5543592303
     H     0.3992888315    1.3336831859    2.0910585208
     H    -1.0577382123   -2.5076628752    1.4248311493
     H    -1.2071727263   -2.9630335071    3.8593340413
