14
-1.7110602670867906e+03 frame 17   xyz file generated by TeraChem
    Fe     0.0481716745   -0.4695446812    0.2572840447
     N     1.8420792356   -0.2478136448    0.5253215209
     C     2.9295279077    0.0758959284    0.0949046998
     S     4.4079187210    0.4772904399   -0.3643441543
     N    -0.4402110208   -1.7070856922   -0.9860882110
     C    -0.4794212304   -2.1012667744   -2.1331283192
     S    -0.5903487750   -2.7099454994   -3.6071660643
     N    -0.8019994651    1.1288256918   -0.0317045097
     C    -0.9663955660    2.0449101752   -0.8131414605
     S    -1.2671787664    3.3050361264   -1.7490939863
     C    -1.4217337691   -0.1245363729    2.8554136255
     O    -0.7740008742   -0.9323457241    2.1923758678
     H    -1.8060412175   -0.4108778438    3.8526264441
     H    -1.6356411505    0.8925380602    2.4750019569
