16
-1.8251982003629489e+03 frame 49   xyz file generated by TeraChem
    Mn     0.0391506388    0.3824414125   -0.3185842130
     C     4.8968205919   -0.2866288279    0.2754808573
     C     4.3124825900   -0.1359380727   -0.9898396166
     C     2.9345792840    0.0080584026   -1.0733797545
     N     2.1387378950    0.0263545208    0.0165060140
     C     2.7006009253   -0.1133262197    1.2329170760
     C     4.0689906624   -0.2793424845    1.4057766159
     C     6.3161360468   -0.4479346431    0.4099479182
     H     4.9161992729   -0.1382284499   -1.8898336318
     H     2.4431157695    0.0936332764   -2.0358969033
     H     2.0250222467   -0.0846537991    2.0797338942
     H     4.4811833381   -0.3962251090    2.4013244618
     N     7.4658530741   -0.5780846644    0.5188249014
    Cl    -0.0667137176   -1.1471379022   -1.9190041021
    Cl    -0.9177704314    2.1203070416   -1.2519036873
    Cl    -0.3928127557    0.7534957638    1.8247665791
