11
-1.4212839062994624e+03 frame 69   xyz file generated by TeraChem
    Fe    -0.2631702156    0.0453378027   -0.0493823168
     F     1.4211380037   -0.2279756368    0.2183414063
     S    -1.3558760782   -1.9524356769   -1.2363164603
     H    -0.3701697849   -2.8058713746   -0.8801352283
     H    -0.8817317469   -1.7958730005   -2.4919964482
     S    -0.8523428451    2.4999833625   -0.5299746130
     H     0.0213715629    2.7256153197   -1.5352843499
     H    -1.9369822180    2.4794800509   -1.3340814947
     S    -1.4143308630   -0.2330525663    2.2437700252
     H    -0.7615187542   -1.3415385319    2.6544870123
     H    -0.6201993288    0.6020801661    2.9480522806
