17
-5.9630422859699638e+02 frame 83   xyz file generated by TeraChem
    Co    -0.0188079127    0.0693537976    0.0553893045
     C     1.2514422387    0.5397412082   -1.2120302388
     N     2.0321844026    0.9423309523   -1.9918587943
     C     0.3431878676   -1.7392116207   -0.3105958228
     N     0.5048445847   -2.8909890858   -0.4755529818
     C    -0.3066292683    3.1848997862    0.3470811664
     N    -0.3210169568    2.0242885122    0.3595036650
     C    -0.2593334228    4.6405731069    0.3030673786
     H     0.4827012270    4.9587001408   -0.4414714089
     H     0.0242067622    5.0387599613    1.2860715241
     H    -1.2425896592    5.0420315001    0.0250839382
     C    -2.0875957689   -0.9897845957    2.1065945871
     N    -1.3402960130   -0.4903326848    1.3701023728
     C    -3.0160118072   -1.6482992281    3.0182797090
     H    -3.7877767883   -0.9446731288    3.3564719051
     H    -2.4738556962   -2.0319251570    3.8929001498
     H    -3.4992257568   -2.4913742331    2.5065772927
