21
-1.8448398235273266e+03 frame 49   xyz file generated by TeraChem
    Fe    -0.7600573659    0.1255421401   -0.2381028470
     N     0.9820708467    0.1218086628   -0.7856830219
     C     2.1492909295    0.3801417349   -0.6000485130
     S     3.7202683638    0.6710318767   -0.4568369026
     N    -1.6161149877   -1.3185244833   -1.0089745239
     C    -2.0121673732   -2.4164372755   -1.3188418227
     S    -2.5633294260   -3.8571662761   -1.7666374470
     N    -1.0961882482    1.9145975328    0.0621647820
     C    -0.8770689262    3.1007281539    0.1531645021
     S    -0.6715550956    4.6847521095    0.3003499891
     C    -0.6167257233   -1.5721106027    4.1557933758
     C    -1.1678629998   -0.3072606432    3.9156487072
     C    -1.1999843665    0.1876201757    2.6110968661
     N    -0.7128193934   -0.5305876069    1.5666220503
     C    -0.1780009588   -1.7595844508    1.7917675160
     C    -0.1136900490   -2.3056096168    3.0735345151
     H    -0.5790943528   -1.9787984359    5.1672160104
     H    -1.5698528285    0.3023627626    4.7245877050
     H    -1.6077191942    1.1645235325    2.3640392480
     H     0.1975392185   -2.2893086381    0.9187566457
     H     0.3257422537   -3.2935331582    3.2089108973
