39
-1.1832072896667405e+03 frame 41   xyz file generated by TeraChem
    Cr     0.0454807145    0.2594616829   -0.1120842602
     C     4.8375124341    0.4737032675    0.1571368590
     C     4.1915798842    1.0268676177   -0.9649911808
     C     2.8099656765    0.9916173308   -1.0255347294
     N     2.0517933065    0.4371983646   -0.0428128446
     C     2.6771733085   -0.1040078355    1.0385250655
     C     4.0551753631   -0.0998628237    1.1748960453
     C     6.2625444887    0.4964008187    0.2577196017
     H     4.7623242803    1.4760206786   -1.7703409337
     H     2.2804553423    1.4151119870   -1.8733440681
     H     2.0424123836   -0.5427695415    1.8018926210
     H     4.5157131121   -0.5352301835    2.0549579635
     N     7.4224720241    0.5166633482    0.3378465971
     C    -1.4207275969   -3.7572350047   -2.3175209631
     C    -0.7708421719   -2.7423076723   -3.0454990418
     C    -0.3962838136   -1.5860434876   -2.3854672612
     N    -0.6307627914   -1.3952298540   -1.0611822414
     C    -1.2595034632   -2.3723614357   -0.3571037517
     C    -1.6669625747   -3.5576480683   -0.9487412054
     C    -1.8232205420   -4.9669832201   -2.9638949095
     H    -0.5663673416   -2.8593066877   -4.1039139844
     H     0.1020830354   -0.7821762384   -2.9206226747
     H    -1.4315907076   -2.1682358564    0.6932047141
     H    -2.1687351353   -4.3144900981   -0.3558817814
     N    -2.1484893081   -5.9500169754   -3.4928343512
     C    -1.8877754108    4.2193385971   -1.9915546290
     C    -2.5132683275    2.9666435507   -2.1250142903
     C    -1.8864422097    1.8475937229   -1.6048424706
     N    -0.6816350111    1.9133514105   -0.9785822481
     C    -0.0822054806    3.1260645272   -0.8413672993
     C    -0.6474513674    4.2907473572   -1.3303888319
     C    -2.5016659194    5.3988422204   -2.5142315567
     H    -3.4730663173    2.8723217563   -2.6208925570
     H    -2.3456501909    0.8671056039   -1.6733955414
     H     0.8697561282    3.1465415168   -0.3209782626
     H    -0.1393597878    5.2399411162   -1.2001767009
     N    -2.9998606735    6.3582534574   -2.9426948793
     O    -0.7536195210    0.0003472287    1.4155373939
     H    -0.8129225232    0.6727849692    2.1249717218
