11
-4.3605785490133786e+02 frame 46   xyz file generated by TeraChem
    Fe     0.0995110849   -0.1429899106   -0.2673733933
     N     1.9361041205    0.4822895327    0.3225462689
     H     2.0398890903    1.4850632784    0.1430971906
     H     2.0729795373    0.3133390043    1.3227002232
     H     2.6898808771    0.0064336237   -0.1803166723
     N    -0.8178125106   -1.5644683992   -1.3973216454
     H    -0.2285139165   -2.3890079017   -1.5384592100
     H    -1.6766549351   -1.8834103612   -0.9396777471
     H    -1.0651817071   -1.1913259250   -2.3178319060
     F     0.0607121954    1.0245006209   -1.4906026420
     F    -0.1558787841   -0.9158920348    1.2147270643
