26
-4.6650247090612146e+02 frame 41   xyz file generated by TeraChem
    Fe     0.0746114101    0.0071108051    0.1919212130
     N     2.0233386511    0.0785742625   -0.4171321158
     H     2.6034686987    0.6697614290    0.1997577138
     H     2.4989878282   -0.8377903777   -0.4023335026
     H     2.2065316769    0.4452816414   -1.3632638655
     C    -2.0845661536   -1.3799841559   -1.4007034224
     N    -0.5979595963   -1.2334816282   -1.1558077731
     H    -0.1502195014   -0.9876147282   -2.0512590395
     H    -0.2149499915   -2.1642968689   -0.9204040026
     H    -2.5193996648   -0.4200762958   -1.6859745766
     H    -2.5743821874   -1.8016937398   -0.5221863011
     H    -2.2165310963   -2.0795206996   -2.2379089153
     C    -0.1924097234    2.8491878066    0.6017657651
     N    -0.6503784543    1.7347434711   -0.3106761578
     H    -0.3709041678    1.9559539787   -1.2781448157
     H    -1.6797025846    1.6981897378   -0.3273040469
     H     0.8984630195    2.9084492054    0.6004848106
     H    -0.5860610436    2.7077139219    1.6103741823
     H    -0.5881550740    3.7962961079    0.2048521668
     C    -0.2728023053   -1.4140796301    2.5996256134
     N    -1.0549684597   -0.4256473376    1.7562046566
     H    -1.2731107474    0.3981933555    2.3344808237
     H    -1.9691431951   -0.8305614819    1.5168920213
     H     0.6619232492   -0.9600217149    2.9419885297
     H    -0.0936183091   -2.3337650771    2.0343258753
     H    -0.8700834218   -1.6737608764    3.4857710271
