24
-5.4035266194961298e+02 frame 90   xyz file generated by TeraChem
    Fe    -0.6117706731    0.5800119970    0.2628598953
     N     0.2459901829    2.0268250306    1.4441703469
     H    -0.4149667578    2.7715289795    1.7000558305
     H     0.6330161648    1.7083683321    2.3378541885
     H     1.0239201474    2.5115373391    0.9793730972
     N    -1.4758827149   -0.7925917787   -0.9862186637
     H    -1.4324053361   -1.7736606629   -0.6938055857
     H    -2.4769763997   -0.6143807815   -1.1429215089
     H    -1.0600438000   -0.7890516309   -1.9267496214
     N    -0.8919794212    1.9768325664   -1.1891809749
     H    -0.1633253082    1.9446908201   -1.9150283750
     H    -1.7816612796    1.8920797137   -1.6958921025
     H    -0.8824492712    2.9444147912   -0.8493216456
     C     0.0932300543   -2.9629265296    3.8217520031
     C    -1.0825493055   -2.2169423777    3.7542239725
     C    -1.2458618982   -1.2113173170    2.7168823652
     N    -0.3079329419   -0.9369737329    1.7813565359
     C     0.8279408054   -1.6672006337    1.8551985628
     C     1.0670298060   -2.6889417566    2.8621507424
     H     0.2437230764   -3.7224360992    4.5865318604
     H    -1.8989385588   -2.3605890969    4.4612788312
     H    -2.1740006818   -0.6429803345    2.6863871107
     H     1.6026448027   -1.4758447337    1.1145431641
     H     2.0175648608   -3.2208837828    2.8363222604
