41
-2.1393878313404516e+03 frame 115   xyz file generated by TeraChem
    Cr    -0.4454833512   -0.5228652346    0.0115600343
     C     1.5001083282   -3.0765774560   -0.2110443261
     O     1.0583820537   -1.9613220473    0.0552919501
     H     0.8806049611   -3.8419201317   -0.6997789708
     H     2.5390485720   -3.3262018663    0.0419124999
     C    -0.0538486301   -0.7548209737   -4.8846700807
     C     0.7182579664    0.1572470563   -4.1321761019
     C     0.5446146925    0.2193906019   -2.7598845542
     N    -0.3390293219   -0.5603203371   -2.0864234458
     C    -1.0814082434   -1.4391959942   -2.8108497984
     C    -0.9766559905   -1.5659669810   -4.1833369984
     S     0.0526230243   -0.9502863967   -6.6158748485
     H     1.4440196218    0.8129905093   -4.6022223664
     H     1.1300751221    0.9203780394   -2.1720535449
     H    -1.7866808126   -2.0590561374   -2.2629142228
     H    -1.6022037049   -2.2852996091   -4.7029659910
     H     1.0135789888   -0.0265080105   -6.8375207401
     C    -2.8817604398    3.7279035364    0.1505975221
     C    -3.2446943848    2.7298383380   -0.7802975204
     C    -2.5523651437    1.5316905247   -0.7924220097
     N    -1.5355704320    1.2512897710    0.0630514890
     C    -1.1931605866    2.2093997704    0.9651957366
     C    -1.8200814959    3.4386509247    1.0384816431
     S    -3.6493503699    5.2896402648    0.2789482451
     H    -4.0512395533    2.8802769421   -1.4905229080
     H    -2.8149511603    0.7640707669   -1.5123645667
     H    -0.3868647113    1.9687601198    1.6499968623
     H    -1.4910732380    4.1624169368    1.7776078779
     H    -4.5705705346    5.1133451068   -0.6938089534
     C    -0.9670657682   -1.4322754510    4.8214783277
     C    -2.0804322002   -1.3404759460    3.9566705380
     C    -1.8738971320   -1.0403482409    2.6210268649
     N    -0.6416252460   -0.8360840380    2.0867198426
     C     0.4290697712   -0.9286809738    2.9191735550
     C     0.3153086567   -1.2113520813    4.2676312349
     S    -1.0649101671   -1.7977188013    6.5245931077
     H    -3.0935061618   -1.4965598069    4.3130249938
     H    -2.7259493127   -0.9575663491    1.9518888842
     H     1.4052478291   -0.7729841036    2.4720551312
     H     1.2104809779   -1.2632607155    4.8797650434
     H    -2.4070474493   -1.9393454219    6.5988097431
