34
-1.0781774284515982e+03 frame 40   xyz file generated by TeraChem
    Co    -0.0484700369    0.2485170488    0.1689467934
     C     2.7644672833    0.7725172334   -1.0095461515
     N     2.0146037986    0.7414179071    0.3022435409
     H     2.1286480433    1.6569193577    0.7492977683
     H     2.5226037057    0.1053005210    0.9239257739
     H     2.2827196245    1.4750603948   -1.6925466872
     H     2.7630366649   -0.2263093575   -1.4498471633
     H     3.7985642796    1.0880250660   -0.8507168429
     C    -1.8953994973   -1.4468176096   -1.6521949201
     N    -0.4468823511   -1.1981273549   -1.3155308903
     H     0.0315608998   -0.9189802024   -2.1781962507
     H    -0.0230478801   -2.0999226354   -1.0780151830
     H    -2.3551172204   -0.5171779597   -1.9933875440
     H    -2.4144958201   -1.8091027784   -0.7629586079
     H    -1.9829379806   -2.1931574848   -2.4456627636
     C    -1.1908081159    3.1025916332    0.5418419017
     N    -0.6361315205    2.1632220793   -0.5016943540
     H     0.1578452723    2.6297315461   -0.9499527205
     H    -1.3316647573    2.0887082351   -1.2510221180
     H    -0.4590780286    3.2368426599    1.3413560070
     H    -2.1121063038    2.6824253560    0.9503205403
     H    -1.4159422181    4.0769436014    0.1008063090
     C    -1.6955772592   -2.2551345392    4.2532819195
     C    -2.5057141012   -1.2687965684    3.6340369750
     C    -2.0155599052   -0.6333207955    2.4992418974
     N    -0.8037218691   -0.9117349925    1.9536620595
     C    -0.0328523979   -1.8530762083    2.5456777748
     C    -0.4261228007   -2.5495440700    3.6856839916
     S    -2.1451988442   -3.1417274439    5.6771115805
     H    -3.4863971533   -0.9985441784    4.0152645737
     H    -2.6194808234    0.1237442445    2.0092575735
     H     0.9319306739   -2.0683873627    2.0970556480
     H     0.2348216992   -3.2981853221    4.1150835964
     H    -3.3643361540   -2.5795550997    5.8867081193
