53
-1.4425691260056783e+03 frame 107   xyz file generated by TeraChem
    Co    -0.0662771764    0.0082588509    0.0507113816
     C     1.9242666737    0.3475558394   -0.2220775545
     N     3.0621343806    0.5314104610   -0.3895860978
     C     4.4157740919    0.7485431372   -0.5912625962
     C     5.0742533841    1.7106864656    0.1906885337
     C     6.4323676568    1.9197795764   -0.0220078047
     C     7.1148138984    1.1817284455   -0.9953636626
     C     6.4432354597    0.2260344738   -1.7656839822
     C     5.0852456127   -0.0008499759   -1.5716066882
     H     4.5270191950    2.2719788649    0.9406012010
     H     6.9602069435    2.6589023358    0.5716469284
     H     6.9793024219   -0.3426593455   -2.5183836953
     H     4.5459675350   -0.7370852520   -2.1580122828
     H     8.1750582101    1.3518959069   -1.1540645696
     C    -0.6911459979   -1.3502468812   -1.3319711955
     N    -1.0470926777   -2.1313303186   -2.1191133626
     C    -1.4682742087   -3.0608497502   -3.0565508021
     C    -1.6714131975   -4.3898007727   -2.6522812788
     C    -2.0908140854   -5.3138677884   -3.6027767123
     C    -2.3019953478   -4.9154937316   -4.9273663666
     C    -2.0952794203   -3.5864634504   -5.3132284642
     C    -1.6758775068   -2.6440191194   -4.3809607481
     H    -1.5016424403   -4.6780811698   -1.6203597233
     H    -2.2532617624   -6.3463060136   -3.3111716038
     H    -2.2612662502   -3.2851620822   -6.3423173740
     H    -1.5096702461   -1.6088230699   -4.6595504175
     H    -2.6293957508   -5.6441036590   -5.6623574582
     C    -1.0686522281    1.7614199775   -0.2074246816
     N    -1.6346227485    2.7681312381   -0.3575164430
     C    -2.3071762080    3.9664775854   -0.5348751748
     C    -3.7005861347    3.9457825900   -0.7047407783
     C    -4.3636129675    5.1553154821   -0.8801196524
     C    -3.6472122983    6.3572377621   -0.8853001038
     C    -2.2584358162    6.3596881580   -0.7148573669
     C    -1.5730425012    5.1630964381   -0.5376911107
     H    -4.2374917828    3.0031673245   -0.6970006690
     H    -5.4404642558    5.1613580880   -1.0131262394
     H    -1.7097192644    7.2957466208   -0.7201681552
     H    -0.4967893993    5.1435457599   -0.4033218322
     H    -4.1736386585    7.2965275993   -1.0226267136
     C    -0.3693947706   -0.7360912925    1.9214551258
     N    -0.5327767089   -1.1568478000    2.9950523949
     C    -0.7226779354   -1.6566085391    4.2731039343
     C    -2.0206792835   -1.6838007121    4.8073527944
     C    -2.1969116032   -2.1872813523    6.0914762489
     C    -1.0983772636   -2.6521665927    6.8227854834
     C     0.1886813685   -2.6179748187    6.2750321794
     C     0.3903393762   -2.1194196884    4.9928655961
     H    -2.8593155153   -1.3184335137    4.2242397959
     H    -3.1919536245   -2.2168640152    6.5231388168
     H     1.0357961322   -2.9802267478    6.8481593334
     H     1.3800077414   -2.0848230926    4.5499301537
     H    -1.2459853018   -3.0434126280    7.8244744617
