55
-1.3466841165751741e+03 frame 102   xyz file generated by TeraChem
    Fe    -0.2693207267   -0.2826384670    0.3570800890
     C     2.8461006985   -0.8312846996   -0.1628219324
     N     1.7185253374   -0.6290209645    0.0259723505
     C     4.2562299493   -1.0835035614   -0.3967933069
     H     4.8034024964   -1.0313793909    0.5513895858
     H     4.6585624306   -0.3339864990   -1.0876045505
     H     4.3860685818   -2.0810804723   -0.8320338248
     C    -1.2990404610   -1.5093421921   -1.0351006848
     N    -1.8387020016   -2.2224502354   -1.7747383036
     C    -3.6552371967   -2.5769833012   -3.4347068540
     C    -4.9444526592   -2.6376030625   -2.8929482590
     C    -6.0518342813   -2.1529853563   -3.6246887728
     C    -5.8711549954   -1.6138517025   -4.8980454214
     C    -4.5886388325   -1.5563443203   -5.4444157215
     C    -3.4790613840   -2.0387655250   -4.7132610721
     H    -5.1097236730   -3.0816201787   -1.9145365039
     H    -7.0456024380   -2.2201127254   -3.1931930019
     H    -4.4347246793   -1.1551978852   -6.4412791926
     H    -2.4922051249   -2.0095244571   -5.1680174872
     H    -6.7236070846   -1.2558082360   -5.4660439783
     C    -2.4774577496   -3.1639437975   -2.6800371417
     H    -1.6909195835   -3.5027085752   -3.3617473625
     H    -2.7774775884   -4.0159173467   -2.0616795800
     C    -0.7312076591    1.7571162368    0.0382843857
     N    -1.0039455894    2.8632724715   -0.1816349229
     C    -0.3778300542    5.2629184638   -0.0216559679
     C    -0.5208837209    5.8830596897    1.2235542091
     C     0.3839585210    6.8904420654    1.6275282371
     C     1.4279867775    7.2770790708    0.7864994974
     C     1.5715882094    6.6640493889   -0.4578526795
     C     0.6673172979    5.6582138601   -0.8646796990
     H    -1.3430050203    5.6142572845    1.8818825850
     H     0.2499291748    7.3709685498    2.5915884600
     H     2.3684902602    6.9666624884   -1.1298864811
     H     0.7781465335    5.2130507279   -1.8502689120
     H     2.1143150533    8.0599179591    1.0924990704
     C    -1.3893012559    4.2322239277   -0.4850587758
     H    -1.5348461204    4.2663639952   -1.5696073365
     H    -2.3641818294    4.3793372254   -0.0095574297
     C    -0.8544540173   -0.8474239795    2.3139933877
     N    -1.2006215514   -1.1630118374    3.3755157833
     C    -0.6422713604   -2.2773705403    5.5250637180
     C    -0.5599865621   -3.6741156223    5.4778991097
     C     0.3581099116   -4.3644644201    6.2998270228
     C     1.1893668036   -3.6597106501    7.1695760119
     C     1.1074810425   -2.2675932710    7.2231335770
     C     0.1901830144   -1.5747250941    6.4015603118
     H    -1.2185303752   -4.2428835952    4.8262830324
     H     0.3986205450   -5.4484166487    6.2592367113
     H     1.7363161564   -1.7074026569    7.9080156540
     H     0.1231074470   -0.4925003173    6.4781120054
     H     1.8848867824   -4.1909143631    7.8111059785
     C    -1.6782123144   -1.5431607006    4.6953398423
     H    -1.9966279042   -0.6124894271    5.1759310807
     H    -2.5694963498   -2.1556787517    4.5261543576
