29
-9.5626872670739283e+02 frame 52   xyz file generated by TeraChem
    Fe     0.2187438824   -0.3690366457   -0.2324533404
     O     2.1295661262   -0.1253009384   -0.0605161577
     N     3.1254003133    0.9464718075    1.8928236244
     C     2.6623025589    0.4222604277    0.9458545133
     O    -0.7703372839   -1.5781770392   -1.3835775181
     N    -3.1364698960   -1.1921693909   -1.8410159825
     C    -1.9945250017   -1.3935104191   -1.6358889036
     C    -1.0772762925    4.3191957405   -1.1772117905
     C     0.0089150914    4.0197389619   -0.3556626815
     C     0.3175860179    2.6864101393   -0.1079122983
     N    -0.3951891946    1.6684206991   -0.6337036132
     C    -1.4492340945    1.9604264752   -1.4236473018
     C    -1.8191247259    3.2696926917   -1.7168604959
     H    -1.3416935116    5.3509975813   -1.3903457198
     H     0.6149564408    4.8007837769    0.0912537662
     H     1.1544270519    2.4193040932    0.5313559601
     H    -2.0153656875    1.1201321678   -1.8161373213
     H    -2.6757355757    3.4509198779   -2.3575016757
     C    -1.8254297979   -1.3922167972    4.1483436454
     C    -0.4807779570   -1.0302271509    4.0840575442
     C     0.0806160255   -0.7361113379    2.8450626134
     N    -0.6322996552   -0.7879437273    1.7012141485
     C    -1.9355028497   -1.1334147876    1.7654522343
     C    -2.5646860409   -1.4422464250    2.9669188622
     H    -2.2895780975   -1.6289803533    5.1014611378
     H     0.1348008687   -0.9732892689    4.9755650312
     H     1.1218726551   -0.4371972418    2.7588991778
     H    -2.4869522521   -1.1621155623    0.8286771813
     H    -3.6145280261   -1.7159484984    2.9658757229
