13
-1.7420200404660482e+03 frame 61   xyz file generated by TeraChem
    Co    -0.0470811726   -0.0107424438    0.0174398993
     S     2.2761378116    0.3291224797   -0.5272426164
     H     2.3518359398    0.0773796228   -1.8550860546
     H     2.8640965708   -0.8300398401   -0.1507563519
     S    -0.3595899326   -2.1316965844   -1.1380292315
     H    -0.6004308591   -2.9800442695   -0.1116194192
     H     0.8617692932   -2.6383369655   -1.4167769012
     S    -0.3872989937    2.4037468652    0.2812993541
     H    -0.1650027962    2.5277925456    1.6115045256
     H     0.7887604230    2.9768599593   -0.0647755505
     S    -2.2523281956   -0.4338193686    0.9685634954
     H    -3.0491413852    0.4115061284    0.2744174706
     H    -2.2739728347    0.2860935503    2.1137904147
