26
-1.9819904657242828e+03 frame 197   xyz file generated by TeraChem
    Co    -0.5464743486    1.7790053604    0.8668242069
     S     1.4118015652    2.7307274653    1.3493911174
     C     2.0108097507    1.9200459745    2.7091554854
     N     2.4526151728    1.3938810595    3.6564677836
     S    -1.8945495782    0.3988599859   -0.2892491973
     C    -2.4502758468   -0.7811927618    0.7897875805
     N    -2.8509374666   -1.6054328847    1.5164463826
     S    -1.1108295994    3.3410521777   -0.6757014521
     C     0.1202491382    4.5014314158   -0.7326725130
     N     0.9593088253    5.3132589355   -0.7942679507
     C    -0.7029267161    0.8234137189    2.5141087728
     N    -0.8180722690    0.2273671144    3.5012931885
     C    -0.0611928580   -1.8581718737    4.5241804641
     C    -0.6015679724   -3.0117135298    3.9439577854
     C     0.1861808997   -4.1554451668    3.8128862419
     C     1.5103884798   -4.1485088903    4.2564675400
     C     2.0518581439   -2.9941977219    4.8260677117
     C     1.2687790850   -1.8475331474    4.9597820743
     H    -1.6266310165   -3.0099839972    3.5827634755
     H    -0.2355293959   -5.0504703262    3.3647294042
     H     3.0834331590   -2.9838800402    5.1656405415
     H     1.6955481803   -0.9436413913    5.3862470885
     H     2.1210322336   -5.0414243070    4.1554017361
     C    -0.9158036225   -0.6140680539    4.6670836124
     H    -0.6058560516   -0.0046474897    5.5209878732
     H    -1.9753109161   -0.8620056569    4.7798507694
