29
-1.2735676847728182e+03 frame 105   xyz file generated by TeraChem
    Fe    -0.2618694211   -0.0083247014    0.2842316915
     O     1.8120604879    0.4013945107    0.2530977341
     C     2.6819901998   -0.0969278854    1.2313824276
     C     3.9563147790    0.1037496150    0.8362607856
     C     3.9111493802    0.7558175231   -0.4489736889
     C     2.6110916359    0.9197171505   -0.7712792163
     H     2.2028547205   -0.5139479447    2.1038561174
     H     4.8418085441   -0.1699468838    1.3924506621
     H     2.0778593381    1.3618501565   -1.5975756896
     H     4.7567191851    1.0660009051   -1.0468580873
     O    -0.5365407735   -1.3568902874   -1.3049235595
     C    -0.8276807670   -2.6994415393   -1.0253319388
     C    -0.6781323426   -3.4285543358   -2.1504503422
     C    -0.2736796951   -2.5251366487   -3.1991049331
     C    -0.1961771702   -1.2904719256   -2.6603971224
     H    -1.1299726788   -2.9062069270   -0.0096923794
     H    -0.8427760591   -4.4929588421   -2.2414491461
     H     0.0394221889   -0.3060689126   -3.0323239974
     H    -0.0745573399   -2.7800435953   -4.2306665567
     O    -0.8173029206    1.7212199650   -0.8086031012
     C    -1.9738729389    1.8526285980   -1.5849290906
     C    -2.2749578656    3.1608227388   -1.7204106331
     C    -1.2773022275    3.9083231175   -0.9954679838
     C    -0.4203782745    3.0161555432   -0.4570234339
     H    -2.4107665571    0.9273818631   -1.9259838968
     H    -3.1126527577    3.5649225774   -2.2712814760
     H     0.4613709484    3.0784926448    0.1612977716
     H    -1.2200669026    4.9831049781   -0.8955236030
    Cl    -1.2265646103   -0.3249466842    2.2049036877
