15
-1.3343772742444992e+03 frame 37   xyz file generated by TeraChem
    Fe    -0.0723919129    0.0630960083    0.0730704592
     N     1.7170114120    0.3680645274    0.3781468719
     C     2.9217718443    0.4352120600    0.4439736162
     S     4.4944198652    0.5390990411    0.5453564940
     N    -0.6578200318   -1.1684633737   -1.1572309112
     C    -0.8370064155   -2.0152858468   -2.0008829077
     S    -1.0907980411   -3.1192458271   -3.1007254806
     C    -1.0399293668    2.7612424401   -1.0832167778
     O    -1.0062692984    1.8681190031   -0.2450952319
     H    -1.6879507992    3.6323860046   -0.9207042262
     H    -0.4363521829    2.7169239935   -2.0009624453
     C    -1.0416312218   -1.0902535656    2.7719918288
     O    -1.0045195319   -0.2515095250    1.8796122922
     H    -1.6838842897   -0.9227912052    3.6464701264
     H    -0.4466192094   -2.0133822816    2.7238783943
