11
-1.2952052838348193e+03 frame 44   xyz file generated by TeraChem
    Cr    -0.4237598594   -0.2404568756    0.1231535809
     I     2.0657371524   -0.1875474860    0.0297922312
     S    -1.1415798476   -1.9006708779   -1.5903880129
     H    -0.4260019672   -1.5734233549   -2.6907328111
     H    -2.3284645653   -1.4559460503   -2.0665841239
     S    -1.4157924969    1.8140083567   -0.7241882481
     H    -0.6279941549    2.0817466557   -1.7924442203
     H    -0.8697122733    2.7721289858    0.0617183811
     S    -0.8539307611   -0.4748109543    2.5750853517
     H    -0.1951580603    0.5711033763    3.1256445869
     H     0.0593312877   -1.3993712088    2.9559249322
