21
-1.2971015266086704e+03 frame 49   xyz file generated by TeraChem
    Fe    -0.2331659850    0.2018516780    0.2812312256
     N     1.4098119051    0.5418960567    1.0929329486
     C     2.4738417199    0.7549379659    1.5944575850
     S     3.8975609143    1.0388264034    2.2688270939
     N    -1.8631719936   -0.1586816198   -0.5474871224
     C    -2.8894240095   -0.4291140756   -1.0968674321
     S    -4.2663634372   -0.7835849852   -1.8330092223
     C    -0.8141939825    2.8666001490   -1.0001643095
     N     0.1178145858    1.7009097821   -1.0455655301
     H     1.0740604745    2.0284935098   -0.9001936444
     H     0.0980343998    1.2907061036   -1.9830544369
     H    -0.7461638791    3.3289393410   -0.0136485870
     H    -1.8311267856    2.5096843902   -1.1607757957
     H    -0.5540917893    3.6033499424   -1.7651257399
     C    -1.1013257619   -0.9373933205    2.8546882892
     N    -0.5233867932   -1.3481777588    1.5410307309
     H    -1.1381481860   -2.0306619469    1.0954112146
     H     0.3738169543   -1.8123103916    1.6940507777
     H    -2.0746313708   -0.4713681191    2.6862300059
     H    -0.4313663551   -0.2172741764    3.3280293470
     H    -1.2274443814   -1.8005337571    3.5143088897
