49
-2.3830429829476043e+03 frame 68   xyz file generated by TeraChem
    Mn    -0.1085455777   -0.0522933654   -0.0283612181
     C     4.7368908594    0.8077632780    0.5774213485
     C     3.9079928565    1.7647253666   -0.0327119984
     C     2.5566279747    1.4874794923   -0.1713032729
     N     1.9913577854    0.3315325330    0.2574252946
     C     2.7979135199   -0.5864814332    0.8487489087
     C     4.1589288340   -0.3932917220    1.0258491239
     C     6.1365339643    1.0491459171    0.7400299761
     H     4.3145497967    2.7043656391   -0.3903480248
     H     1.8943089776    2.2106458265   -0.6374670036
     H     2.3290060794   -1.5045439552    1.1930890009
     H     4.7639162030   -1.1564118934    1.5032934066
     N     7.2750753395    1.2441417501    0.8724909731
     C    -0.7475580421   -3.5894720125   -3.4850660158
     C     0.5316449578   -3.2891176891   -2.9711872708
     C     0.6569304610   -2.2940398920   -2.0160667961
     N    -0.3939922324   -1.5800907103   -1.5384330830
     C    -1.6229947635   -1.8680755370   -2.0396658549
     C    -1.8443152866   -2.8451487448   -2.9936536936
     S    -1.0683847216   -4.8148568947   -4.6886584739
     H     1.4188673918   -3.8167848243   -3.3058080168
     H     1.6361536570   -2.0489207045   -1.6164726624
     H    -2.4567018222   -1.2847723537   -1.6591889515
     H    -2.8530253523   -3.0255632698   -3.3521563419
     H     0.2047429526   -5.2367351518   -4.8538665376
     C    -2.3144776712    4.1684072488   -1.4939477803
     C    -1.6307827395    3.3488744643   -2.4177928540
     C    -1.0569743607    2.1691271882   -1.9742004254
     N    -1.1162716889    1.7481064854   -0.6844919483
     C    -1.7718097365    2.5406025356    0.2021031299
     C    -2.3765938838    3.7337838812   -0.1507514105
     S    -3.0913511798    5.6805843051   -1.8968117943
     H    -1.5480767728    3.6173480644   -3.4659787174
     H    -0.5332306556    1.5252173461   -2.6750512616
     H    -1.8163120623    2.1949420746    1.2303303497
     H    -2.8923213083    4.3170427169    0.6057465999
     H    -2.7829013278    5.6928501630   -3.2124272936
     C    -1.6140570955   -1.2884982248    4.5636128095
     C    -2.2218172552   -1.8706550869    3.4307932755
     C    -1.7819292006   -1.5055228979    2.1692512236
     N    -0.7848065115   -0.6110689105    1.9551702737
     C    -0.2014613398   -0.0531411794    3.0479260345
     C    -0.5763697713   -0.3543484395    4.3452748850
     S    -2.0547452609   -1.6462859072    6.2164050771
     H    -3.0214336667   -2.5983517930    3.5232499174
     H    -2.2373135735   -1.9505725137    1.2898051023
     H     0.6016478829    0.6547860126    2.8653130204
     H    -0.0670682919    0.1259029508    5.1750484377
     H    -3.0333385920   -2.5387187004    5.9481903584
