53
-1.5078874193981439e+03 frame 53   xyz file generated by TeraChem
    Fe    -0.1979201975    0.2710289157   -0.1242003262
     C     2.0129096387    0.1291430341   -0.2117583599
     N     3.1695572190    0.0011592482   -0.1353143854
     C     5.5835375761    0.4561586605   -0.6589179052
     C     5.2946727344    1.4503070369   -1.6070726035
     C     6.3419773777    2.0834206155   -2.2541496244
     C     7.7147864932    1.7274460796   -1.9595815641
     C     8.0083108205    0.7307203084   -1.0088129105
     C     6.9651777273    0.1010642076   -0.3658623641
     H     4.2693108551    1.7225542171   -1.8314699062
     H     6.1503243707    2.8572809487   -2.9921045830
     H     9.0380759014    0.4661159248   -0.7899424639
     H     7.1676067502   -0.6722867301    0.3716772305
     H     8.5167619612    2.2417271948   -2.4838191999
     C     4.5448104947   -0.3121741450    0.1205436451
     H     4.7194768386   -0.1632204814    1.1973694176
     H     4.6776882940   -1.3892595754   -0.0645178513
     C    -2.3878506058   -2.6965405341   -3.3401653637
     C    -1.0015385690   -2.8019398945   -3.1283973820
     C    -0.3953944591   -1.9404499197   -2.2283890495
     N    -1.0801855085   -0.9977388036   -1.5351196060
     C    -2.4181080361   -0.9011889898   -1.7439303399
     C    -3.1045572834   -1.7200049863   -2.6265854870
     C    -3.0510709451   -3.5634799121   -4.2629205421
     H    -0.4146858753   -3.5426844771   -3.6603099876
     H     0.6732431747   -1.9984378661   -2.0480829758
     H    -2.9478035741   -0.1359180083   -1.1840718589
     H    -4.1747129686   -1.6056217086   -2.7608223487
     N    -3.5866146095   -4.2700096829   -5.0153324641
     C    -1.9569497712    4.5983539116   -1.5049085371
     C    -1.2547661060    3.7905989459   -2.4176866481
     C    -0.7549863395    2.5735982091   -1.9851333866
     N    -0.9116424546    2.1234217562   -0.7151276613
     C    -1.5968060205    2.9024681797    0.1594781509
     C    -2.1285143130    4.1338719848   -0.1891472890
     C    -2.4854515359    5.8633496102   -1.9086983323
     H    -1.1104600147    4.1093478784   -3.4441414310
     H    -0.2206178330    1.9230572984   -2.6707888819
     H    -1.7272714655    2.5184525373    1.1664729724
     H    -2.6705120567    4.7232041755    0.5424479088
     N    -2.9091695616    6.8947785428   -2.2384296118
     C    -1.4147699056   -1.2850734018    4.3209452937
     C    -0.8133368836   -0.0243286873    4.1499358268
     C    -0.4587087612    0.3773729780    2.8736163713
     N    -0.6696183852   -0.3914321908    1.7741777612
     C    -1.2460876920   -1.6081781156    1.9444521803
     C    -1.6306955943   -2.0873106930    3.1869078332
     C    -1.7932424563   -1.7403380420    5.6214822717
     H    -0.6309495170    0.6239929067    5.0000103790
     H     0.0109162835    1.3438432696    2.7135174807
     H    -1.4049446128   -2.2036953991    1.0512821610
     H    -2.0917698728   -3.0648172873    3.2773756419
     N    -2.0957819100   -2.1109266128    6.6813837745
