39
-2.1011226780573238e+03 frame 32   xyz file generated by TeraChem
    Cr     0.2329028536    0.4108607322   -0.0001700568
     C     4.9772252099    0.0124268070   -0.6171297556
     C     4.3745741660    1.2841499474   -0.4890647717
     C     3.0036706156    1.3797774195   -0.3829995923
     N     2.1812786587    0.2947342270   -0.3977481640
     C     2.7581082831   -0.9359155967   -0.5099571800
     C     4.1190720048   -1.1116133321   -0.6257251877
     S     6.6916929925   -0.2576675466   -0.7595507748
     H     4.9679426932    2.1919999203   -0.4678851579
     H     2.5231059498    2.3475317350   -0.2787366866
     H     2.0890792516   -1.7903498484   -0.5026264310
     H     4.5180255400   -2.1167327984   -0.7159620733
     H     7.0700790630    1.0354003495   -0.6897009352
     C    -2.0873184934   -3.5098692997   -1.5676360795
     C    -1.3308883702   -2.7048328873   -2.4482243852
     C    -0.6603512335   -1.6051014303   -1.9557767994
     N    -0.6897979734   -1.2467576420   -0.6446342514
     C    -1.4181226389   -2.0171552371    0.2121402475
     C    -2.1122166839   -3.1319062596   -0.2074991185
     S    -2.9824399908   -4.9274221119   -2.0492262292
     H    -1.2648473768   -2.9317582476   -3.5069158838
     H    -0.0740962376   -0.9777921089   -2.6219719438
     H    -1.4183463901   -1.7085791849    1.2508598884
     H    -2.6718526823   -3.7083061411    0.5220714081
     H    -2.6716156140   -4.8825746186   -3.3612166590
     C    -1.6753464735    4.2363005746   -2.2189306048
     C    -0.4904788598    3.6547820320   -2.7247907517
     C     0.0679503645    2.5709545235   -2.0809005184
     N    -0.4744012559    2.0190922769   -0.9607730232
     C    -1.6228666547    2.5721741497   -0.4727784579
     C    -2.2360536514    3.6569872971   -1.0575016615
     S    -2.4829772370    5.6071312408   -2.9270269513
     H    -0.0068151372    4.0453702696   -3.6137999332
     H     0.9774672516    2.1156087074   -2.4606901977
     H    -2.0375602942    2.1167325622    0.4215308949
     H    -3.1442540688    4.0544195410   -0.6163332241
     H    -1.6240927790    5.7962732013   -3.9501827309
     O    -0.0498764589    0.1274697674    1.7081355553
     H     0.3513482476    0.6642889806    2.4202998747
