31
-2.3611886124315297e+03 frame 53   xyz file generated by TeraChem
    Cr     0.2434032182   -0.1908405418   -0.3833116549
     S     2.5397792605    0.2246975707   -0.0329611011
     C     2.3797659322    1.5341057111    1.0226929747
     N     2.1942683725    2.4391160927    1.7404589027
     S    -1.0796292344   -1.5509873250   -1.7890118798
     C    -2.5426793348   -1.4958427336   -0.9470573595
     N    -3.5307510755   -1.4145638217   -0.3262055387
     C    -1.7901965547    4.0904264605   -1.1159680415
     C    -0.4156725813    3.9086677494   -1.3595999621
     C     0.1662279806    2.6817246241   -1.1138963756
     N    -0.5418905039    1.6207328731   -0.6462207494
     C    -1.8734623570    1.7819008085   -0.4181222823
     C    -2.5169874184    2.9818448855   -0.6330783350
     S    -2.6458365736    5.5933630332   -1.3767200733
     H     0.2079678135    4.7138167086   -1.7323172512
     H     1.2221847356    2.5195583468   -1.2871515155
     H    -2.4289482252    0.9160825013   -0.0705768299
     H    -3.5813579478    3.0498553574   -0.4343618641
     H    -1.5894933547    6.3090415916   -1.8138674929
     C    -1.0447096511   -1.5526780355    4.0236065802
     C    -0.6496345956   -0.2305092590    3.7411431413
     C    -0.3029208747    0.1190403228    2.4517990198
     N    -0.3369359407   -0.7690138324    1.4250884520
     C    -0.7117011889   -2.0503607105    1.6863124553
     C    -1.0615479426   -2.4686073741    2.9524513281
     S    -1.5062632515   -2.1225254409    5.6117626061
     H    -0.5996106381    0.5266222327    4.5160940763
     H     0.0378489376    1.1242455235    2.2272302443
     H    -0.7255943600   -2.7412580416    0.8520107625
     H    -1.3526104906   -3.5030144913    3.1009640842
     H    -1.3335939217   -0.9524632415    6.2600153017
