25
-6.7557178192653839e+02 frame 87   xyz file generated by TeraChem
    Co    -0.0076956253    0.0068656540    0.0140924478
     C     2.0056432564    0.3464224061   -0.2481601525
     N     3.1383572593    0.5356160909   -0.3969018799
     C     4.5390004231    0.7683140621   -0.5808011462
     H     4.7948928930    0.5643652366   -1.6235894812
     H     5.0955634846    0.1007513152    0.0817735294
     H     4.7572504918    1.8108894793   -0.3361572644
     C    -0.6415772249   -1.3775305973   -1.3700642146
     N    -0.9972875898   -2.1568693459   -2.1491746510
     C    -1.4374455600   -3.1202851878   -3.1127427782
     H    -2.4936706341   -3.3373045186   -2.9347253386
     H    -0.8409005790   -4.0288121540   -2.9983014713
     H    -1.3013769935   -2.7028863121   -4.1135747399
     C    -1.0323797226    1.7705886549   -0.2565972140
     N    -1.6080137934    2.7631199237   -0.4127286914
     C    -2.3213860230    3.9892434694   -0.6079971651
     H    -3.3933575072    3.7841144221   -0.5513906649
     H    -2.0651913885    4.3908972533   -1.5915504156
     H    -2.0299214657    4.6934917677    0.1752639889
     C    -0.3468165702   -0.7221899456    1.9084004514
     N    -0.5380722301   -1.1340840572    2.9736150576
     C    -0.7755245149   -1.6427699873    4.2905525178
     H    -0.9307184914   -0.8005669854    4.9695364284
     H     0.0946030036   -2.2248959134    4.6042488575
     H    -1.6652330008   -2.2770116799    4.2666717620
