13
-1.7662649785278441e+03 frame 74   xyz file generated by TeraChem
    Ni    -0.1810303569    0.0211893431   -0.3389871540
     S     2.2180521477   -0.3896301028    0.0373655287
     H     2.5661395874    0.5729323820    0.9213223475
     H     2.2271324808   -1.3901111944    0.9473727927
     S    -0.8071563153   -2.3126945536   -0.8365041637
     H    -2.0973449035   -2.1572423288   -1.2166568667
     H    -0.3361576623   -2.4308965672   -2.1004845135
     S     0.0264395131    2.4229536784   -0.8714400197
     H    -1.2503704259    2.7245696218   -1.2060942619
     H     0.4619313046    2.3626078531   -2.1521742890
     S    -1.3392496855    0.2759323660    1.8143838708
     H    -0.5328510731    1.1193984885    2.4979522353
     H    -0.9609660923   -0.8254810323    2.5020557538
