29
-8.3560005964225866e+02 frame 45   xyz file generated by TeraChem
    Co     0.1197540144   -0.1512004974   -0.1911844862
     O    -0.2534279164   -1.3885984482   -1.6635865177
     C    -0.9716496333   -2.4392217018   -1.5416897104
     C    -1.0970366168   -3.2770595157   -2.7962016724
     C    -1.6296106400   -2.8533684543   -0.3680022208
     C    -1.6024095712   -2.1862349192    0.8697549014
     O    -0.9655417135   -1.1044365178    1.1197701475
     C    -2.3725283425   -2.7597388194    2.0396794545
     H    -0.1013724558   -3.6158839915   -3.1049776174
     H    -1.4898476209   -2.6554996681   -3.6085515298
     H    -1.7453797157   -4.1459131698   -2.6606515813
     H    -2.9431027797   -3.6523849015    1.7722176618
     H    -3.0550740896   -1.9976943561    2.4316773382
     H    -1.6735851397   -3.0099902960    2.8463408121
     H    -2.2095483928   -3.7670012729   -0.4245337257
     O     2.0297791121    0.0580139726    0.1387621070
     C     2.6097893270    1.1987373011    0.1091933743
     C     4.0974575124    1.1627787756    0.3855044697
     C     1.9877629593    2.4336906553   -0.1557497403
     C     0.6227198457    2.6404433532   -0.4301991557
     O    -0.2805204190    1.7340286732   -0.4756712684
     C     0.1282745276    4.0451248938   -0.7011049114
     H     4.2707849453    0.7064663807    1.3666252674
     H     4.5570489523    2.1537027348    0.3625316254
     H     4.5870770503    0.5217291587   -0.3564794359
     H     0.9167413336    4.7959531872   -0.6104565319
     H    -0.6814598660    4.2839141961   -0.0026983594
     H    -0.2956957413    4.0908337296   -1.7110052792
     H     2.6227509210    3.3116754580   -0.1489979366
