112
-3.4423893282002896e+03 frame 88   xyz file generated by TeraChem
    Mn    -0.3889065452   -0.0913853566   -0.0746737876
     O     1.8510495438   -0.1480710725   -0.0722163454
     C     2.7042192523   -0.5055799502    0.9766237700
     C     3.9852410463   -0.4668942209    0.5504523750
     C     3.9632585328   -0.0607433920   -0.8311059376
     C     2.6695401908    0.1242723223   -1.1733727554
     H     2.2198518208   -0.7115402212    1.9170220027
     H     4.8587399122   -0.6932807619    1.1460432686
     H     2.1558633779    0.4244543104   -2.0715280676
     H     4.8163910431    0.0748989344   -1.4813463211
     C    -3.3932226708    0.8450443596   -2.2705728792
     C    -3.1275858554   -0.4856328280   -2.6216889717
     P    -1.7556344433   -1.4034513120   -1.8287899736
     C    -2.4699298825   -3.0805017514   -1.5602439908
     C    -3.5997801447   -3.1943898404   -0.7321072784
     C    -4.2417683595   -4.4216648338   -0.5839896112
     C    -3.7604010011   -5.5509679273   -1.2512961470
     C    -2.6347383289   -5.4461965125   -2.0678430018
     C    -1.9894403254   -4.2175343287   -2.2264543590
     C    -0.4433544842   -1.6143738119   -3.1040925434
     C     0.7353074057   -2.2979531379   -2.7489941438
     C     1.7543812533   -2.4831867580   -3.6840400830
     C     1.6152461597   -1.9790727366   -4.9794315936
     C     0.4516671568   -1.2944679140   -5.3379525332
     C    -0.5743315489   -1.1105297719   -4.4087027545
     C    -3.9290567008   -1.1151088730   -3.5924916681
     C    -4.9629158057   -0.4120977273   -4.2073698554
     C    -5.2166355303    0.9174292886   -3.8554343431
     C    -4.4342334166    1.5441790106   -2.8857037718
     H    -2.8009424349    1.3436179901   -1.5106680752
     H    -3.9973627682   -2.3245472269   -0.2188013204
     H    -5.1242000893   -4.4947027067    0.0450929923
     H    -4.2664492498   -6.5054706915   -1.1410536919
     H    -2.2615891581   -6.3173292505   -2.5982322096
     H    -1.1326991881   -4.1517796913   -2.8875930737
     H     0.8458458761   -2.7185942776   -1.7519453394
     H     2.6520969872   -3.0262074704   -3.4035419476
     H     2.4057901707   -2.1280855821   -5.7087730275
     H     0.3330055728   -0.9156720849   -6.3490233499
     H    -1.4797898442   -0.5916823392   -4.7061049853
     H    -3.7498921477   -2.1518830599   -3.8609621882
     H    -5.5757717081   -0.9043743323   -4.9564401650
     H    -6.0274980954    1.4586162656   -4.3338912716
     H    -4.6303828658    2.5729372479   -2.5990507181
     C     0.2174464905    2.2305621076   -2.8720505332
     C     0.3900437181    3.0293287042   -1.7298090400
     P    -0.3690642285    2.4974732394   -0.1461431636
     C     0.6973922002    3.2446196548    1.1578623057
     C     2.0777920750    2.9739615105    1.1490602416
     C     2.9097159350    3.5317613055    2.1180678805
     C     2.3779547006    4.3610178250    3.1093648623
     C     1.0100206351    4.6366907730    3.1221059846
     C     0.1700383308    4.0837396430    2.1519868725
     C    -1.9866828340    3.3538720942   -0.0142902650
     C    -2.8740741038    2.9762633580    1.0082180290
     C    -4.0915583560    3.6381911175    1.1645715969
     C    -4.4411704454    4.6743671853    0.2948306176
     C    -3.5696719433    5.0462337407   -0.7309985538
     C    -2.3457611408    4.3924799031   -0.8880388060
     C     1.1322463819    4.2179677901   -1.8318315746
     C     1.6870470808    4.5941546882   -3.0557024541
     C     1.5142756485    3.7903266502   -4.1853891631
     C     0.7779025893    2.6076184870   -4.0928773357
     H    -0.3648143877    1.3143820825   -2.8198228591
     H     2.5145351931    2.3619999694    0.3660846574
     H     3.9760490792    3.3275615116    2.0922277156
     H     3.0299355781    4.8017326221    3.8577332937
     H     0.5927382257    5.2976949492    3.8761728422
     H    -0.8868060885    4.3268582145    2.1643222204
     H    -2.6158918005    2.1727833713    1.6925933546
     H    -4.7646022565    3.3439768169    1.9643465287
     H    -5.3883908609    5.1909990574    0.4173851698
     H    -3.8357307152    5.8540195616   -1.4063335324
     H    -1.6746498654    4.6959151898   -1.6845006911
     H     1.2807944118    4.8456004195   -0.9592614174
     H     2.2561444636    5.5162589762   -3.1257594620
     H     1.9515545453    4.0862611758   -5.1342385441
     H     0.6399935142    1.9767908189   -4.9658700527
     C    -3.7388350291   -0.3959947506    1.7713753139
     C    -2.7452713458   -0.7977012080    2.6787691135
     P    -1.0446584568   -1.1255659757    2.0901148597
     C     0.0617482708   -0.6819019857    3.4868782775
     C     0.2039955730    0.6746001917    3.8284425117
     C     1.0211505817    1.0497254617    4.8930466979
     C     1.7106634237    0.0779164743    5.6231061896
     C     1.5769286312   -1.2707905264    5.2885183426
     C     0.7569604425   -1.6550539036    4.2252180647
     C    -0.8554679243   -2.9345197957    1.8706919526
     C     0.2816234973   -3.4072510706    1.1904474898
     C     0.4950758167   -4.7765838024    1.0394443282
     C    -0.4285903637   -5.6868571201    1.5594808046
     C    -1.5620101866   -5.2241826223    2.2295172768
     C    -1.7804568444   -3.8539711994    2.3839959484
     C    -3.0775228199   -0.9690041693    4.0340715757
     C    -4.3881781986   -0.7606328734    4.4631884242
     C    -5.3744453447   -0.3754834056    3.5515313061
     C    -5.0489413821   -0.1896910080    2.2061351906
     H    -3.4935040822   -0.2309721108    0.7260687982
     H    -0.3258192570    1.4426273130    3.2729564351
     H     1.1203268342    2.1002710614    5.1471446275
     H     2.3473454342    0.3709938218    6.4525064425
     H     2.1029344980   -2.0297222592    5.8599702931
     H     0.6531523240   -2.7074989751    3.9839342940
     H     1.0225306953   -2.7093933017    0.8046613512
     H     1.3819746701   -5.1337851609    0.5241746683
     H    -0.2621153888   -6.7537483476    1.4457492462
     H    -2.2789399122   -5.9303701191    2.6373584299
     H    -2.6667852769   -3.5073242809    2.9053051632
     H    -2.3169190576   -1.2618336611    4.7513314789
     H    -4.6378990522   -0.8979554302    5.5109140461
     H    -6.3934006786   -0.2146784980    3.8906700850
     H    -5.8106506314    0.1202494918    1.4966653102
