9
-5.1652351321946867e+02 frame 57   xyz file generated by TeraChem
    Co    -0.0009572136    0.0002077195   -0.0037823197
     C     1.6990419617    0.3462886443   -0.8540959241
     N     2.7318233700    0.5560887878   -1.3708936555
     C     0.2634252184   -1.9349467030   -0.2810515263
     N     0.4209947731   -3.0850906935   -0.4460705204
     C    -0.2608861369    1.9343351896    0.2876798872
     N    -0.4161407006    3.0833855118    0.4624021981
     C    -1.7019612706   -0.3451178388    0.8452615118
     N    -2.7354462962   -0.5551903562    1.3605197665
