45
-1.1156296442939836e+03 frame 131   xyz file generated by TeraChem
    Fe    -0.0262594455   -0.5302452823    0.0722297213
     C     1.3987950039   -0.0586147755   -2.6609513452
     N     0.8460829552   -0.1911595096   -1.6513223269
     C     2.0953951359    0.1072865976   -3.9250496492
     H     3.1167559353    0.4596283521   -3.7389410054
     H     1.5699791572    0.8403342284   -4.5474068183
     H     2.1373971036   -0.8499055126   -4.4567149383
     C     0.4512088384   -3.5730826685   -0.4386384834
     N     0.2670770858   -2.4540954530   -0.2006660740
     C     0.6852019714   -4.9745618383   -0.7413323687
     H     1.7624186313   -5.1779468199   -0.7371637441
     H     0.2797534523   -5.2112047170   -1.7319562113
     H     0.1959172272   -5.6076772134    0.0068697384
     C    -0.3177358288    1.4199022461    0.2625233449
     N    -0.4476957683    2.5699808047    0.3375019610
     C    -1.9194397619    4.5722978695    0.1657915207
     C    -2.3829086705    4.7924420621   -1.1389401139
     C    -3.6569757027    5.3746667931   -1.3665147435
     C    -4.4615550924    5.7466625351   -0.2926619373
     C    -4.0009821855    5.5403288837    1.0090582087
     C    -2.7276390303    4.9522331176    1.2385208265
     H    -1.7609861882    4.5419735763   -1.9946485332
     H    -3.9887660364    5.5410090672   -2.3866680582
     H    -4.6059835964    5.8400838694    1.8592456574
     H    -2.3832381490    4.8290767720    2.2619748460
     H    -5.4298167404    6.2053029324   -0.4644688757
     C    -0.5249832782    4.0219222869    0.4104242018
     H    -0.1565125542    4.2949796768    1.4038199056
     H     0.1914397202    4.3960251279   -0.3281107962
     C    -0.8735621050   -0.9374191316    1.8154789688
     N    -1.3952251582   -1.2081553801    2.8158192272
     C    -1.3405654949   -1.9607436677    5.2012385162
     C     0.0409204023   -1.8191920051    5.3027798268
     C     0.6817658744   -2.2036587067    6.4822421847
     C    -0.0626411476   -2.7351588570    7.5729656663
     C    -1.4491455399   -2.8771348570    7.4711873028
     C    -2.0875625142   -2.4961552894    6.2987638244
     H     0.6255275091   -1.4117252410    4.4843575377
     H     1.7579127728   -2.0952052411    6.5757766770
     H    -2.0236117540   -3.2826123296    8.2974630519
     H    -3.1659226995   -2.6055741000    6.2128843639
     H     0.4555241749   -3.0277081143    8.4811274322
     C    -2.1558689187   -1.5449327670    3.9903794228
     H    -2.7708197325   -0.6663610876    4.2282472379
     H    -2.8418949792   -2.3482376640    3.6936217723
