13
-8.9947030944827964e+02 frame 34   xyz file generated by TeraChem
    Co     0.1685300437   -0.1789350104   -0.0727629998
     C    -1.2245111414   -2.4123155091   -0.4712575898
     O    -0.0825874411   -1.8255358932   -0.8209028883
     C    -2.0468174068   -1.5368004074    0.5080295543
     O    -3.1153355881   -1.8727085908    0.9691109838
     O    -1.4394422043   -0.3819250804    0.7652681979
     O    -1.5863081298   -3.5008197424   -0.8611778549
     C     2.3793384203    1.1701452876   -0.7219821028
     O     1.8185637775   -0.0272605601   -0.8489888948
     C     1.4423946595    2.1663957135    0.0048423818
     O     1.7349710286    3.3204484852    0.2296267557
     O     0.2943428899    1.5965331791    0.3557499146
     O     3.4862131736    1.4620141557   -1.1196892067
