47
-1.2630037149179418e+03 frame 34   xyz file generated by TeraChem
    Cr    -0.0277663815    0.0572184233    0.0571644089
     C     4.6788457769   -0.5098255530   -0.4729335856
     C     3.7988531338   -0.6086136476   -1.5722659542
     C     2.4413894944   -0.4608047422   -1.3612703323
     N     1.9159005856   -0.2179663307   -0.1229369631
     C     2.7690427589   -0.1127313660    0.9372867505
     C     4.1377408711   -0.2570990622    0.8033270386
     C     6.0838007488   -0.6622555288   -0.6518843655
     H     4.1763587639   -0.8033605761   -2.5709175455
     H     1.7435260097   -0.5383544221   -2.1901730161
     H     2.3253271162    0.0811535330    1.9067651187
     H     4.7795857246   -0.1749317714    1.6744169103
     N     7.2319887258   -0.7860995728   -0.7995565421
     C    -2.3598389486   -2.7803960264   -2.9774014386
     C    -1.1512858838   -3.2067264731   -2.3841102896
     C    -0.4868558415   -2.3539340196   -1.5236782070
     N    -0.9636646185   -1.1093686775   -1.2219180696
     C    -2.1344210985   -0.6993552702   -1.7906206655
     C    -2.8493514690   -1.4962144654   -2.6662977872
     C    -3.0684101827   -3.6333003164   -3.8717089451
     H    -0.7420632209   -4.1883457215   -2.6004520254
     H     0.4455488962   -2.6538184918   -1.0542093568
     H    -2.4843210873    0.2950695155   -1.5338015736
     H    -3.7729862075   -1.1305531703   -3.1029671710
     N    -3.6469607979   -4.3317970960   -4.6016448309
     C    -0.9969565789    4.6097670971   -0.8734545054
     C     0.0995713145    3.9901950911   -1.4827767682
     C     0.3846877068    2.6683351942   -1.1761714966
     N    -0.3719571084    1.9588378133   -0.2900042977
     C    -1.4406905601    2.5646452836    0.3061630906
     C    -1.7774566355    3.8806925029    0.0331235465
     H    -1.2390946308    5.6448637021   -1.0983778747
     H     0.7306724537    4.5235783753   -2.1865139896
     H     1.2323866425    2.1594800572   -1.6226177998
     H    -2.0179297651    1.9699249129    1.0080801064
     H    -2.6340321966    4.3274639497    0.5279737014
     C    -1.2204888298   -1.2871260158    4.4493873756
     C    -1.4078019393   -2.1702489245    3.3819708814
     C    -1.0802545906   -1.7598902985    2.0971193247
     N    -0.5877105777   -0.5137133158    1.8504142954
     C    -0.4059202543    0.3491397328    2.8911485564
     C    -0.7085933864   -0.0074327095    4.1952052259
     H    -1.4703689743   -1.5873630393    5.4632698607
     H    -1.8056462449   -3.1680081835    3.5375940669
     H    -1.2196706924   -2.4182836338    1.2468649164
     H    -0.0132239246    1.3349666358    2.6552062122
     H    -0.5520022302    0.7078814202    4.9964529026
