101
-2.0495368051517153e+03 frame 85   xyz file generated by TeraChem
    Fe    -0.0492878570    0.0144643693   -0.0075836614
     C     2.0008257599    0.2077206004    0.2381062231
     N     3.1542012242    0.3239362712    0.3931216126
     C     4.5091523357    0.4682430806    0.5858926983
     C     4.9891577033    1.5616548396    1.3361502538
     C     6.3508019038    1.6902801861    1.5259230247
     C     7.2787639597    0.7531748779    0.9906802234
     C     8.7676687583    0.9391907903    1.2363263848
     C     9.2035540787    2.3149992345    0.6483402440
     C     9.0238729740    0.9458362997    2.7731508585
     C     9.6254196575   -0.1660954670    0.5952645753
     C     6.7543773612   -0.3290521022    0.2409105863
     C     5.3943210165   -0.4801884812    0.0340401583
     H     4.2941159270    2.2829860322    1.7525918807
     H     6.7159992452    2.5315541154    2.1035528099
     H     9.0408484740    2.3509419670   -0.4336991489
     H    10.2724044469    2.4546455125    0.8385823695
     H     8.6733959606    3.1552367462    1.1070825307
     H     8.7376059237   -0.0093059368    3.2255000131
     H     8.4832933357    1.7476127246    3.2852059113
     H    10.0926446644    1.1012068652    2.9508683837
     H     9.3849962229   -1.1591622342    0.9913868454
     H    10.6795378943    0.0217243068    0.8171198477
     H     9.5244580983   -0.1871280420   -0.4956790126
     H     7.4267332598   -1.0635455221   -0.1841474047
     H     5.0063430455   -1.3142656905   -0.5410843810
     C    -0.5729313292   -1.4003121408   -1.4276655861
     N    -0.8685851431   -2.1971969967   -2.2309564552
     C    -1.2184300460   -3.1350038042   -3.1754860800
     C    -2.5814547105   -3.4084119555   -3.4119502211
     C    -2.9135695491   -4.3526223892   -4.3635441977
     C    -1.9239951448   -5.0553487715   -5.1065739580
     C    -2.3458953768   -6.0855943805   -6.1420884043
     C    -3.2032706934   -7.1824671904   -5.4422616988
     C    -3.2197978100   -5.3784265298   -7.2222984267
     C    -1.1505833328   -6.7611820815   -6.8376982666
     C    -0.5666411138   -4.7496823953   -4.8379755590
     C    -0.2064956842   -3.8068109826   -3.8912262295
     H    -3.3479867475   -2.8820650265   -2.8531876957
     H    -3.9622523415   -4.5594351080   -4.5436341336
     H    -2.6252579572   -7.7009874792   -4.6706326958
     H    -3.5105421990   -7.9174460885   -6.1925529509
     H    -4.1101172647   -6.7763936070   -4.9844513679
     H    -2.6520422563   -4.5974271854   -7.7380091574
     H    -4.1244768212   -4.9308188987   -6.8001348832
     H    -3.5299376806   -6.1229512649   -7.9619655530
     H    -0.5312188565   -6.0430388766   -7.3866066398
     H    -1.5216532161   -7.4881707769   -7.5654324884
     H    -0.5159826905   -7.3072188163   -6.1306666223
     H     0.2171742750   -5.2615225600   -5.3819232193
     H     0.8368711353   -3.5824958154   -3.6960102545
     C    -0.7872870241    1.8434193452   -0.6566257015
     N    -1.1863366369    2.8764154609   -1.0324986876
     C    -1.6420323187    4.0930297955   -1.4872343271
     C    -2.5279083197    4.8486313799   -0.6921561354
     C    -2.9665760536    6.0702631968   -1.1644048175
     C    -2.5528572695    6.5836584072   -2.4256164489
     C    -3.0626168427    7.9362372091   -2.8959867034
     C    -4.6195091302    7.8971757885   -2.9515953038
     C    -2.6245984847    9.0203529519   -1.8650595009
     C    -2.5284065022    8.3293668566   -4.2847173017
     C    -1.6643224543    5.7909193141   -3.1938137153
     C    -1.2084950167    4.5645440708   -2.7435648201
     H    -2.8526905500    4.4711926808    0.2715473321
     H    -3.6461506437    6.6503348313   -0.5508670336
     H    -4.9705625356    7.1409632552   -3.6611754405
     H    -4.9816100311    8.8742157356   -3.2863686564
     H    -5.0714347012    7.6940795301   -1.9758212485
     H    -1.5335704878    9.0902488231   -1.8068335567
     H    -3.0131960086    8.8259692974   -0.8607020657
     H    -3.0135448380    9.9904914222   -2.1898205565
     H    -1.4361078101    8.4152387492   -4.2983583135
     H    -2.9316376153    9.3071399922   -4.5624814278
     H    -2.8365083903    7.6202473481   -5.0611218727
     H    -1.3255534628    6.1455530436   -4.1590949096
     H    -0.5267174134    3.9688692573   -3.3415002837
     C    -0.8412430375   -0.5746785280    1.8178915500
     N    -1.2772053061   -0.9301415599    2.8432759216
     C    -1.7757391533   -1.3714803476    4.0476152055
     C    -1.3502634166   -2.6173362378    4.5540422345
     C    -1.8555479243   -3.0504324964    5.7636741194
     C    -2.7899477651   -2.2784071144    6.5099135134
     C    -3.3156310434   -2.8034907820    7.8361156112
     C    -4.0311711343   -4.1656390599    7.5854219904
     C    -2.1099460433   -3.0397935667    8.7947828997
     C    -4.3075453913   -1.8415212960    8.5138518844
     C    -3.1907411771   -1.0329150537    5.9655171795
     C    -2.6995062551   -0.5753443921    4.7550265386
     H    -0.6381761310   -3.2170045901    3.9970620935
     H    -1.5254720845   -4.0078072072    6.1499784955
     H    -4.8866521547   -4.0435475828    6.9134849424
     H    -4.3987353502   -4.5489169922    8.5425654287
     H    -3.3609744518   -4.9199135216    7.1620682339
     H    -1.5692969565   -2.1074965285    8.9873277338
     H    -1.4025235203   -3.7777381809    8.4043469899
     H    -2.4892144498   -3.4185735829    9.7491317369
     H    -3.8506397305   -0.8733950181    8.7477813717
     H    -4.6410323365   -2.2774923989    9.4595626730
     H    -5.2011835695   -1.6727159349    7.9028686782
     H    -3.8997328516   -0.4159719884    6.5031274603
     H    -3.0156115287    0.3803448459    4.3504300207
