29
-9.1886872494050408e+02 frame 86   xyz file generated by TeraChem
    Cr    -0.1978367830   -0.2713594835    0.1371125336
     C     4.5348663395   -0.9439349154    0.9192519829
     C     4.0861875473   -0.2185879744   -0.1961447452
     C     2.7214873957   -0.0848982668   -0.3979414898
     N     1.8080804000   -0.6217893767    0.4427017608
     C     2.2378540991   -1.3169685945    1.5204292580
     C     3.5865102825   -1.5020092444    1.7896234885
     C     5.9370838508   -1.1119781895    1.1613943310
     H     4.7884696865    0.2282940641   -0.8903472605
     H     2.3350809392    0.4665659289   -1.2488292182
     H     1.4640912608   -1.7247012540    2.1612589553
     H     3.8947198760   -2.0678384949    2.6613108728
     N     7.0747167518   -1.2494371884    1.3549681967
     C    -1.1590704284   -1.8752665142   -4.3235429510
     C    -0.6495134173   -2.7360519753   -3.3381550483
     C    -0.3593164228   -2.2166671190   -2.0866081245
     N    -0.5565382892   -0.9143901300   -1.7775421252
     C    -1.0504794368   -0.0839307213   -2.7241877063
     C    -1.3593719949   -0.5242007900   -4.0033574389
     C    -1.4662196425   -2.3693512817   -5.6329305656
     H    -0.4814812703   -3.7862998230   -3.5469584238
     H     0.0399670635   -2.8471131147   -1.2990547918
     H    -1.1907267377    0.9471828069   -2.4220189092
     H    -1.7524306053    0.1703076023   -4.7370204331
     N    -1.7129484961   -2.7710764092   -6.6951572140
     O    -0.5269226469    1.4316532133   -0.2295580666
     H    -0.4253255960    2.1319951635    0.4402190951
     O    -0.7675853817   -1.3916341210    1.3759440769
     H    -1.7084949478   -1.5489530306    1.5740278241
