13
-2.0507681210889091e+03 frame 40   xyz file generated by TeraChem
    Cr    -0.0149728944   -0.0037540576    0.0085728864
     N     1.7455861256    0.4303208118   -0.9305526148
     C     2.7982367466    0.6675024931   -1.4105459831
     S     4.2641267998    0.9963355871   -2.0762016724
     N     0.0647112024   -1.9034237976   -0.7248592811
     C     0.0711584168   -2.9785768320   -1.2136137482
     S     0.0771413966   -4.4741147347   -1.8937548669
     N    -0.3313958267    1.9775232886    0.3673099126
     C    -0.5487413418    3.1284249628    0.5201159080
     S    -0.8534355823    4.7291382202    0.7301983539
     N    -1.5030389966   -0.5176233249    1.3040737221
     C    -2.3189831535   -0.8168756252    2.1039216968
     S    -3.4524262166   -1.2339029707    3.2177661504
