11
-6.3916249205549070e+02 frame 49   xyz file generated by TeraChem
    Fe     0.4587482208    0.5273253145   -0.2546569222
     O     2.3781506173    0.3418140597    0.0709015189
     N     4.1420500729   -1.3333032409    0.0829000095
     C     3.2536045168   -0.5543483049    0.0724005651
     O     0.4180842835   -0.8137250244   -1.6132411263
     N    -1.3966680883   -1.8340149359   -2.8753542686
     C    -0.5536944468   -1.3143699398   -2.2322812861
     O    -0.8539968832    1.8545702477   -0.8834613890
     N    -2.9012517607    3.1015565933   -0.4754837408
     C    -1.9208720255    2.4636343423   -0.6449635901
     I    -0.5462886084   -0.3848230192    2.0533238070
