32
-9.2749206912027012e+02 frame 55   xyz file generated by TeraChem
    Fe     0.1530896581   -0.0321010161   -0.0705987420
     C     3.1086889070   -0.7650519113   -0.8248731166
     O     2.1176634383   -0.2653086231   -0.2892153554
     H     4.1097878819   -0.4910031221   -0.4692474803
     H     3.0096561927   -1.4795213893   -1.6528040244
     O    -0.7514930349   -1.2039007152   -1.4806272683
     C    -1.0625774070   -2.5730698709   -1.3063065386
     C    -1.4429049426   -3.0914617609   -2.4891270702
     C    -1.3781006904   -2.0354651708   -3.4735992822
     C    -0.9611311196   -0.9175776169   -2.8500713320
     H    -0.9639177166   -2.9546676701   -0.3009785820
     H    -1.7484712134   -4.1145932168   -2.6628962463
     H    -0.7722741394    0.1030759483   -3.1455473718
     H    -1.6254216516   -2.1189758359   -4.5234984145
     O    -0.5495960902    1.8418457859   -0.4269375058
     C    -1.9073703385    2.1279627588   -0.7065581609
     C    -2.1562166376    3.4154729005   -0.4031010421
     C    -0.9299468521    3.9963874395    0.0945162819
     C     0.0151197549    3.0385368986    0.0740751735
     H    -2.4786023842    1.3147319342   -1.1272051809
     H    -3.1035629616    3.9231272166   -0.5261606813
     H     1.0677272679    2.9918450503    0.3073687935
     H    -0.7864690155    5.0200525962    0.4134056010
     O    -0.4982280091   -0.4936247142    1.7921908799
     C    -1.8111541189   -0.8804872540    2.1543670088
     C    -1.9095032318   -0.8941533249    3.4960433740
     C    -0.6273004711   -0.5034096268    4.0373021815
     C     0.1999682316   -0.2672949210    3.0033180627
     H    -2.4786989626   -1.0991314337    1.3351694781
     H    -2.7924701846   -1.1581020284    4.0625458945
     H     1.2336033810    0.0231816420    2.8964741766
     H    -0.3698781580   -0.4210254998    5.0847247833
