16
-7.2648611651356543e+02 frame 47   xyz file generated by TeraChem
    Cr     0.1814073747    0.7182858732    0.1735890830
     C     4.8295848567   -0.4647350575   -0.0745348722
     C     3.9837923795   -0.6666056100   -1.1760636488
     C     2.6384350403   -0.3529010399   -1.0529725876
     N     2.1219111787    0.1486962896    0.0887629701
     C     2.9267754296    0.3291781276    1.1573136942
     C     4.2815668057    0.0377965605    1.1158818835
     C     6.2271898443   -0.7716122670   -0.1620149854
     H     4.3683088114   -1.0650251407   -2.1078270060
     H     1.9348240387   -0.5093495373   -1.8627412376
     H     2.4420885887    0.7046913912    2.0505508802
     H     4.9000729279    0.1941677118    1.9920116000
     N     7.3605426496   -1.0207081730   -0.2335084636
     F    -0.2834129832   -0.4481354885   -1.0444746644
     F    -0.0904865868    2.4240313152   -0.0997711692
     F     0.0473340452    0.4952982216    1.8993093097
