31
-1.7863116650166721e+03 frame 30   xyz file generated by TeraChem
    Fe     0.0736934889   -0.0058427166   -0.1264542380
     N     1.8438140877    0.3014328779    0.1294733262
     C     2.9924971911    0.4166434823    0.5146148789
     S     4.5085833933    0.5704425420    0.9688621066
     N    -1.0133625591   -1.0030460565   -1.1918735795
     C    -1.7407904569   -1.1616457918   -2.1572691998
     S    -2.6886761267   -1.4692005730   -3.3958025209
     C    -1.9584530419    4.2001570773   -0.9018930942
     C    -0.5746679065    4.0172317366   -1.1068289232
     C    -0.0061642336    2.7768888000   -0.8310017985
     N    -0.7459022354    1.7298668782   -0.3690905836
     C    -2.0822067150    1.8995318138   -0.1720048947
     C    -2.7186861360    3.1111974173   -0.4234668643
     C    -2.5794304870    5.4632141040   -1.1724561532
     H     0.0505037950    4.8295041909   -1.4747352617
     H     1.0558483115    2.5880454329   -0.9689881313
     H    -2.6366697633    1.0316205697    0.1797208298
     H    -3.7905008441    3.2070734064   -0.2562043853
     N    -3.0873906157    6.4961296130   -1.3904583547
     C    -1.1017905948   -1.5337141609    4.1999203200
     C    -0.5472999587   -0.2481478188    4.0187587215
     C    -0.2581599755    0.1863246443    2.7289387903
     N    -0.4963970625   -0.5881781075    1.6364082651
     C    -1.0279961695   -1.8304048875    1.8007565233
     C    -1.3417610626   -2.3321535109    3.0617071319
     C    -1.4150626834   -2.0154777224    5.5130985711
     H    -0.3411968198    0.3982679202    4.8705661969
     H     0.1846594066    1.1638212842    2.5457917222
     H    -1.1983224322   -2.4072519221    0.8937003096
     H    -1.7665553110   -3.3304110344    3.1571471760
     N    -1.6738154111   -2.4061784167    6.5867953048
