45
-1.0790418324120255e+03 frame 44   xyz file generated by TeraChem
    Cr    -0.2034813494   -0.0800541140    0.0449501787
     C     4.6387273812    0.1077494322   -0.0282801325
     C     3.8742304600    1.0102556746   -0.7694892629
     C     2.4885809704    0.9261140398   -0.7092625397
     N     1.8464295962    0.0009286073    0.0419299558
     C     2.5945732520   -0.8691378321    0.7632755365
     C     3.9834078305   -0.8478987585    0.7513547943
     H     5.7232228910    0.1492151715   -0.0555848523
     H     4.3396519357    1.7722272992   -1.3853869886
     H     1.8619034506    1.6149442060   -1.2666551800
     H     2.0517584249   -1.5929661658    1.3633077945
     H     4.5365760637   -1.5674005239    1.3456023312
     C    -1.1443398284   -3.4566563436   -3.3673098567
     C     0.1262971140   -3.4120299121   -2.7905169929
     C     0.4064678336   -2.4243938712   -1.8546493666
     N    -0.5086391115   -1.5010283476   -1.4763558713
     C    -1.7392872167   -1.5497016838   -2.0438703045
     C    -2.0938106141   -2.5056621981   -2.9857910048
     H    -1.3904280584   -4.2166499484   -4.1025819755
     H     0.8929641619   -4.1300694911   -3.0612978420
     H     1.3835377664   -2.3565395301   -1.3889214056
     H    -2.4500586786   -0.7872261978   -1.7331824271
     H    -3.0916979527   -2.5008374127   -3.4109380134
     C    -2.2882749978    4.1822687616   -1.3149395707
     C    -1.6877422099    3.3587454418   -2.2705567160
     C    -1.0917340491    2.1755024187   -1.8553732011
     N    -1.0653472838    1.7851881858   -0.5578619897
     C    -1.6507806165    2.5890173175    0.3611543696
     C    -2.2684934394    3.7874013194    0.0235132593
     H    -2.7629882165    5.1133032395   -1.6090952208
     H    -1.6804878749    3.6267705351   -3.3217040874
     H    -0.6176800361    1.5090386741   -2.5707653049
     H    -1.6184305425    2.2530397308    1.3934010768
     H    -2.7239528913    4.3955452606    0.7977253223
     C    -1.0675077044   -0.7550942769    4.8106144100
     C    -1.7688860871   -1.4563120553    3.8278133763
     C    -1.4543238699   -1.2323248119    2.4938117256
     N    -0.4878990887   -0.3650285111    2.1051048286
     C     0.1914191500    0.3083186342    3.0654395046
     C    -0.0724030454    0.1437712719    4.4192893189
     H    -1.2913986035   -0.9068396489    5.8620954261
     H    -2.5475495970   -2.1657927790    4.0863115302
     H    -1.9810145679   -1.7608133533    1.7027131523
     H     0.9643671454    0.9899215596    2.7241725583
     H     0.4960178832    0.7083638242    5.1506563827
