29
-7.9423405998320595e+02 frame 68   xyz file generated by TeraChem
    Mn     0.2517977017   -0.2518503294   -0.2737360022
     O     0.2866543370   -1.8716067365   -1.2026410126
     C    -0.5575254153   -2.8589031723   -1.1765508561
     C    -0.2183006329   -3.9995148887   -2.0875441577
     C    -1.6938222168   -2.8752851438   -0.3624734001
     C    -2.0187644594   -1.8317019456    0.5091089476
     O    -1.3036204723   -0.7536236497    0.6301042387
     C    -3.2358406872   -1.8792081571    1.3825546267
     H    -0.1198168686   -3.6290926066   -3.1142710746
     H    -0.9709200930   -4.7886082843   -2.0532465807
     H     0.7565720869   -4.4126656343   -1.8026182759
     H    -3.7881732699   -2.8126520449    1.2649577583
     H    -3.8897215800   -1.0340686127    1.1372139857
     H    -2.9376628976   -1.7585712395    2.4302689939
     H    -2.3451103113   -3.7386691549   -0.3997823800
     O     2.0780450071    0.0186309475   -0.5596506818
     C     2.7466256963    1.1323150378   -0.5006338818
     C     4.2160719376    0.9935985747   -0.7612155978
     C     2.1603258166    2.3717605322   -0.2237924982
     C     0.7931904683    2.5433132533    0.0179208522
     O    -0.0650477156    1.5667664130    0.0198615173
     C     0.2051867536    3.8923409323    0.3026852668
     H     4.6517147865    0.3078269977   -0.0250991070
     H     4.7338050409    1.9527320755   -0.7157689026
     H     4.3669597810    0.5400048958   -1.7475394610
     H     0.9536247857    4.6850561749    0.2617203963
     H    -0.2604447969    3.8807742841    1.2953280524
     H    -0.5914916649    4.1016455486   -0.4203049982
     H     2.7977663220    3.2459348229   -0.2008288333
