9
-4.4843077250904844e+02 frame 57   xyz file generated by TeraChem
    Co     0.2057946873   -0.1709483552    0.1872131950
     O     1.8086279192   -0.9231266973    0.5200881799
     H     1.9459343617   -1.3844194939   -0.3260248861
     O     0.1653557574   -1.0501961219   -1.4036844967
     H    -0.5873217311   -0.6094927158   -1.8330517815
     O    -1.2509492215    0.7909831256   -0.3847426097
     H    -1.3290544982    1.5594499704    0.2019401353
     O     0.0672032993    0.4973883273    1.8772785318
     H    -0.8457947281    0.8235662891    1.9407201514
