29
-5.0641427646545077e+02 frame 71   xyz file generated by TeraChem
    Fe     0.0157236087   -0.1144689572    0.0858961925
     C     2.5302161695   -1.2057901246    1.4306024506
     N     1.9706420040   -0.0120138615    0.7017664881
     H     2.5910342480    0.1928585685   -0.0881213280
     H     2.0817750032    0.8035863594    1.3112915460
     H     2.5027262554   -2.0825673734    0.7803579288
     H     1.9285945526   -1.4017152980    2.3196127870
     H     3.5641089537   -1.0229637833    1.7333199666
     C    -0.4434965344   -2.1912692399   -2.1362007693
     N     0.5566504257   -1.2179258131   -1.5719097158
     H     0.8565163228   -0.5942690462   -2.3298525530
     H     1.4009942452   -1.7509716778   -1.3468288033
     H    -1.3140636004   -1.6529638469   -2.5150920496
     H    -0.7554607541   -2.8858004736   -1.3537333950
     H    -0.0019770306   -2.7571745455   -2.9604155946
     C    -2.0718281624    2.0444995824   -0.5044279841
     N    -1.6687732101    0.6336946535   -0.8380664780
     H    -1.5421321894    0.5850944813   -1.8521070602
     H    -2.4725226229    0.0207193306   -0.6639805492
     H    -1.2391191145    2.7167431981   -0.7201095776
     H    -2.3292525191    2.1106215415    0.5533836304
     H    -2.9389081033    2.3467011352   -1.0970704407
     C    -0.4000374232    1.2771111467    2.8177799607
     N    -0.7874860895    0.0906443218    1.9759094100
     H    -1.8090410896    0.0741478536    1.9099587521
     H    -0.5647160564   -0.7536479462    2.5124056646
     H    -0.5906350367    2.2002489572    2.2679722923
     H     0.6612881764    1.2135466150    3.0639527083
     H    -0.9700503080    1.2901403690    3.7501814300
