9
-2.0067124136276439e+03 frame 32   xyz file generated by TeraChem
    Mn    -0.1768524925   -0.1475479727   -0.0923778296
     N     1.8847280393    0.1677788081    0.2159398202
     C     3.0326875057    0.3661615810    0.4120908353
     S     4.6343359808    0.6428179529    0.6839126637
     N    -0.3566189024   -1.4909933212   -1.7084129370
     C    -0.4999230785   -2.2460507186   -2.6055365812
     S    -0.6981846132   -3.2984197329   -3.8584355264
    Cl    -1.2524021762    1.9856859906   -0.5188090273
    Cl    -1.1607507575   -1.1897168686    1.8737787087
