11
-1.2377521890786284e+03 frame 41   xyz file generated by TeraChem
    Mn    -0.2208809164    0.0645820062    0.1041745515
     N     1.7793740090   -0.2526248741    0.4242153467
     C     2.9150841873   -0.3419649871    0.7316542324
     S     4.5174128972   -0.4622271030    1.1637152377
     N    -0.3746182467   -0.8500313661   -1.7255952633
     C    -0.6060330848   -1.3717391232   -2.7584142665
     S    -0.9358461502   -2.1121043608   -4.2114856645
     O    -1.4994509050    1.3542242243   -0.3840013012
     H    -1.7691478684    1.1033338403   -1.2827997999
     O    -0.5665540087   -0.1866503726    1.9307413685
     H     0.2952280810   -0.3506773806    2.3479239255
