35
-1.3085127591238609e+03 frame 50   xyz file generated by TeraChem
    Mn    -0.0671976564    0.1200941738   -0.0715094375
     C     4.6424522494    0.1451972709    0.1918601005
     C     4.0025563429    0.6696432672   -0.9366339574
     C     2.6185277226    0.6393010580   -0.9994878528
     N     1.8706294386    0.1090146948    0.0031786387
     C     2.4881701879   -0.3985359092    1.1035097323
     C     3.8712468279   -0.3948967245    1.2229328393
     H     5.7256659732    0.1621987110    0.2657951336
     H     4.5660982271    1.1025696233   -1.7561962971
     H     2.0805442870    1.0473542086   -1.8492194435
     H     1.8503191085   -0.8023875751    1.8816826971
     H     4.3275253801   -0.8077684021    2.1163436566
     C    -1.5524731912   -3.3473694698   -2.8889645872
     C    -0.1855159871   -3.2158689600   -2.6305373302
     C     0.2561802113   -2.1528676782   -1.8570662427
     N    -0.6063989666   -1.2304853205   -1.3545038440
     C    -1.9376520141   -1.3581075826   -1.6056735310
     C    -2.4404373656   -2.4018113593   -2.3662182718
     H    -1.9218883882   -4.1763940922   -3.4851033009
     H     0.5339721324   -3.9300578037   -3.0163832871
     H     1.3056157794   -2.0200619132   -1.6228345288
     H    -2.5918367623   -0.6097785500   -1.1682839821
     H    -3.5092493600   -2.4723634696   -2.5372989819
     C    -1.4142605271    4.3753087938   -1.5714339338
     C    -1.3359592092    3.3088016785   -2.4726064809
     C    -0.9402767635    2.0633977437   -2.0092908523
     N    -0.6240160819    1.8579494710   -0.7035239634
     C    -0.6993255308    2.8916804121    0.1760054442
     C    -1.0897201826    4.1595619007   -0.2297600572
     H    -1.7270809247    5.3584762966   -1.9100231350
     H    -1.5833410563    3.4352295163   -3.5212077525
     H    -0.8760715367    1.2070669911   -2.6728210727
     H    -0.4519781397    2.6759131560    1.2092906853
     H    -1.1435458040    4.9583811874    0.5021412437
    Cl    -0.9994172693   -0.1847489303    1.8195510255
