14
-3.9240858971044645e+02 frame 35   xyz file generated by TeraChem
    Fe     0.0198867913    0.0972217604   -0.2182996056
     N     2.0566911104    0.0723414646    0.2363412546
     H     2.3271583946    0.8825249337    0.8116512733
     H     2.2922363654   -0.7508301905    0.8090179254
     H     2.7033434911    0.0612157984   -0.5633342153
     N    -0.6061923731   -1.5004418689   -1.4011014931
     H    -0.4753636280   -1.4077012745   -2.4172454137
     H    -0.1405200278   -2.3799888572   -1.1358257135
     H    -1.6107121960   -1.6795644385   -1.2571005952
     N    -0.6693103631    1.9751897916   -0.7962450869
     H    -0.0921098846    2.4950955753   -1.4706620095
     H    -1.6123389251    1.9325653998   -1.2088091451
     H    -0.7699709373    2.5857913084    0.0278967759
     F    -0.7283938513   -0.1498901063    1.2971157714
