19
-1.3709095928512093e+03 frame 73   xyz file generated by TeraChem
    Fe     0.1575402010    0.0935401622   -0.0045907553
     N     1.9583209038    0.3873717233    0.2905002133
     C     3.1604064748    0.4611311859    0.3506180033
     S     4.7365869258    0.5719170815    0.4452450743
     N    -0.3569841091   -1.0889217030   -1.3272745720
     C    -0.5037164665   -1.8895850182   -2.2168555243
     S    -0.7168836861   -2.9406271393   -3.3810779544
     C    -1.2108586145    2.9749673101   -0.5832522465
     N    -0.7693328591    1.9394455864   -0.3134960685
     C    -1.7625338099    4.2757887182   -0.9254238172
     H    -1.3785156977    4.5900398345   -1.9015588425
     H    -1.4710153080    5.0125366319   -0.1699747975
     H    -2.8546593725    4.2154574940   -0.9712243173
     C    -1.1563571686   -1.0749014072    2.7294344812
     N    -0.7252661117   -0.5909873701    1.7704020735
     C    -1.6962936203   -1.6858603560    3.9332999921
     H    -1.4895217882   -2.7610827143    3.9227291248
     H    -2.7789611927   -1.5289924743    3.9747272078
     H    -1.2310543828   -1.2383093939    4.8174139600
