41
-1.1138317808093918e+03 frame 33   xyz file generated by TeraChem
    Fe     0.2449422979   -0.2275113461   -0.2538672897
     N    -0.6489701353   -1.5406851308   -1.5708060292
     N    -1.0728902191   -1.1253616336    1.0564999724
     C    -0.3819278413   -1.6883103956   -2.8832204630
     H     0.3931736675   -1.0479033226   -3.2929879820
     C    -1.0523116918   -2.6058375887   -3.6839659303
     H    -0.8058649948   -2.6923889939   -4.7364385610
     C    -2.0375666767   -3.3983143661   -3.0962411113
     H    -2.5855522730   -4.1269918635   -3.6855750097
     C    -2.3179027020   -3.2493259880   -1.7375164471
     H    -3.0832610010   -3.8642135366   -1.2808229462
     C    -2.7805490408   -2.7964912434    1.2123511723
     H    -3.3929387763   -3.5610802643    0.7510578874
     C    -2.9344999473   -2.5203088942    2.5713569358
     H    -3.6646026414   -3.0707900421    3.1565823020
     C    -2.1451550882   -1.5359126950    3.1647071287
     H    -2.2356372766   -1.2926007637    4.2175741131
     C    -1.2254515179   -0.8623019043    2.3691288299
     H    -0.5872769459   -0.0878153841    2.7835302446
     C    -1.6090943518   -2.3100067105   -0.9862943125
     C    -1.8393826052   -2.0844786700    0.4665247943
     N     2.2772184639   -0.0801099875    0.0238567900
     N     0.3911631599    1.8060644871   -0.5207737608
     C     3.1597542939   -1.0626471490    0.2909763848
     H     2.7498902788   -2.0643475663    0.3707766708
     C     4.5184909857   -0.8225577827    0.4561179138
     H     5.1944964008   -1.6429625956    0.6701827079
     C     4.9740248963    0.4898191688    0.3384066191
     H     6.0274785086    0.7223500173    0.4596123827
     C     4.0639308897    1.5106036654    0.0616765473
     H     4.4203526054    2.5286639755   -0.0304174826
     C     1.9780756249    3.5964526635   -0.5323474283
     H     2.9944584183    3.9545273390   -0.4288797466
     C     0.9575497178    4.5063903118   -0.8105216390
     H     1.1886536966    5.5612583275   -0.9217516547
     C    -0.3527646492    4.0488270499   -0.9426758383
     H    -1.1728937047    4.7246166892   -1.1584602456
     C    -0.5911210440    2.6883937023   -0.7894533120
     H    -1.5912455107    2.2770093390   -0.8805175712
     C     2.7094946206    1.2075225713   -0.0932084927
     C     1.6768874880    2.2401795579   -0.3903279059
