29
-7.9447372149132843e+02 frame 48   xyz file generated by TeraChem
    Mn     0.0128789160   -0.0849792120   -0.2202259937
     O    -0.5112256188   -1.3735070071   -1.7120363043
     C    -1.2108639782   -2.4336610688   -1.5784251578
     C    -1.3685911164   -3.2668753196   -2.8330147405
     C    -1.8296122055   -2.8619900069   -0.3868809999
     C    -1.7826533252   -2.1930849039    0.8498286724
     O    -1.1538067231   -1.1029024097    1.0810462223
     C    -2.5218102780   -2.7759165310    2.0355596515
     H    -0.3786821195   -3.5822542983   -3.1827083786
     H    -1.8036079186   -2.6465838266   -3.6248946250
     H    -1.9943171454   -4.1497223239   -2.6816317573
     H    -3.0765200997   -3.6836754484    1.7857768038
     H    -3.2150374030   -2.0260177711    2.4329494631
     H    -1.8045972597   -3.0025106763    2.8332891978
     H    -2.3997345959   -3.7825941215   -0.4303153738
     O     2.0201097774    0.0149210110    0.1535855675
     C     2.7819692699    1.0379235340    0.1174442137
     C     4.2391647231    0.7797765373    0.4388633455
     C     2.3669061871    2.3473234982   -0.1928746379
     C     1.0479065345    2.7134604331   -0.5086851655
     O     0.0548962137    1.9086663939   -0.5515633765
     C     0.7298800690    4.1576064173   -0.8307984057
     H     4.3166546610    0.3409593452    1.4403053161
     H     4.8499360673    1.6849696135    0.3950440643
     H     4.6392342615    0.0411705255   -0.2653247273
     H     1.6037613596    4.8098322200   -0.7579736853
     H    -0.0476985193    4.5184679645   -0.1478631772
     H     0.3186507310    4.2204064287   -1.8451096090
     H     3.1189345494    3.1274391663   -0.1892946328
