11
-1.6082347688591285e+03 frame 24   xyz file generated by TeraChem
    Fe    -0.0262204050    0.0274954284   -0.0493182399
     N     1.9402222970    0.3567562123    0.2743151391
     C     3.0891581762    0.5638163472    0.4628646782
     S     4.6832251649    0.8571418133    0.7212038479
     N    -0.1439152094   -1.3941155344   -1.4962042327
     C    -0.2181800849   -2.2038209201   -2.3542603097
     S    -0.3224025199   -3.3307237906   -3.5460706181
     N    -1.0868113467    1.6248663720   -0.6696068032
     C    -1.7030831184    2.5701911354   -1.0232703626
     S    -2.5532151371    3.8849853114   -1.5140141432
     I    -1.1373524351   -0.8610909267    2.3696424037
