13
-2.0877277017400147e+03 frame 47   xyz file generated by TeraChem
    Fe     0.3125668624    0.3751978630   -0.2666415897
     S     2.5384605058    0.6878327838   -0.6721701605
     C     3.4397375572   -0.2969077194    0.3710824328
     N     4.1074227585   -0.9480068240    1.0771760170
     S    -1.5023184741   -0.5310267684   -1.2576021664
     C    -0.9939528166   -2.1490749833   -1.3035642639
     N    -0.6800151937   -3.2737811264   -1.3791196249
     S    -0.1350999101    2.5819529677   -0.6101405516
     C    -1.7137131447    2.6885793425   -1.2134713399
     N    -2.7965668270    2.8189473002   -1.6370808631
     S     0.5516366103   -0.5830799867    1.7328460028
     C    -1.0356087942   -0.6536528276    2.3315842104
     N    -2.0929521930   -0.7170999214    2.8270445516
