13
-8.7784113590344066e+02 frame 16   xyz file generated by TeraChem
    Fe     0.1645041520   -0.2123808776   -0.0421224687
     C    -1.3540081963   -2.1356193482   -1.1247060117
     O    -0.2845334827   -1.3823356485   -1.3741870052
     C    -1.9547192600   -1.8280373140    0.2713109175
     O    -2.9318515680   -2.3834532936    0.7206389581
     O    -1.2569317145   -0.8856907717    0.9011655606
     O    -1.8016591609   -2.9651936906   -1.8839184023
     C     2.5224259166    1.0911312236    0.1730166156
     O     1.9660683426   -0.1078242104    0.3051403860
     C     1.4730256127    2.1397147523   -0.2567736151
     O     1.7128836186    3.3133852034   -0.4315835043
     O     0.2738830632    1.5813224232   -0.3974623460
     O     3.6901371833    1.3411689032    0.3744437337
