31
-1.3043267582736164e+03 frame 79   xyz file generated by TeraChem
    Fe     0.6486183332   -0.0265756713    0.0621481814
     S     2.9915222710   -0.3997133491   -0.4191758351
     C     2.5529527352    0.6455847327    0.8007528987
     N     1.8878317760    1.2842202652    1.5486206380
     O    -0.2685694469   -1.2006007234   -1.3075759462
     C     0.2143404646   -2.4060532419   -1.8318592279
     C    -0.7512050966   -2.9810732609   -2.5786813770
     C    -1.9032473484   -2.1154731920   -2.5362019978
     C    -1.5843508244   -1.0548903942   -1.7643206337
     H     1.2272973482   -2.6574457319   -1.5631704012
     H    -0.6635394994   -3.9169214611   -3.1125488260
     H    -2.0941059131   -0.1608416823   -1.4429202722
     H    -2.8500475910   -2.2735967418   -3.0335663089
     O    -0.3362214241    1.7370945670   -0.4947643665
     C    -0.7952806672    2.7215080001    0.3823261082
     C    -1.1938120493    3.7981726091   -0.3270570214
     C    -0.9727804459    3.5011193736   -1.7202822527
     C    -0.4548439563    2.2564880429   -1.7881257042
     H    -0.7404868019    2.4727497793    1.4290646029
     H    -1.5985724233    4.7124624244    0.0834345055
     H    -0.1163847801    1.6126222652   -2.5842468702
     H    -1.1747406924    4.1496241430   -2.5612306232
     O    -0.5032647535   -0.6534579030    1.6970315479
     C    -1.5008076840   -1.6336607997    1.6782025776
     C    -2.0216986160   -1.7654424166    2.9157630892
     C    -1.3313300324   -0.8344973133    3.7721808668
     C    -0.4248015253   -0.1824246283    3.0147844074
     H    -1.6812829379   -2.1041453488    0.7258445617
     H    -2.8083346746   -2.4494832569    3.2020104413
     H     0.3293594787    0.5677514308    3.1874055515
     H    -1.4957880760   -0.6826004800    4.8297053017
