11
-1.3328366868637690e+03 frame 59   xyz file generated by TeraChem
    Fe    -0.2042934171    0.1678715319   -0.0847849197
     I     2.0932837083    1.1604076481    0.3566116343
     S    -0.2842680887   -1.6490745825   -1.8945778127
     H     0.8593897748   -2.2812984129   -1.5541674842
     H    -1.0959666306   -2.6140540954   -1.4105203959
     S    -1.9378418151    1.8858798513   -0.8411190729
     H    -1.2930963029    2.3736059463   -1.9236203375
     H    -1.5432262244    2.8979947979   -0.0385910484
     S    -1.2796472044   -0.8241707707    2.0124569432
     H    -0.1764685430   -1.3745195792    2.5641559912
     H    -1.2502439577    0.2608644361    2.8155134068
