101
-2.0499572799714670e+03 frame 128   xyz file generated by TeraChem
    Fe     0.0510519811   -0.0093440713   -0.0164179532
     C     1.7638314812    0.3240721127   -0.8740817595
     N     2.8003939201    0.5139530744   -1.3747213512
     C     4.0302242971    0.7282370872   -1.9632962507
     C     4.5600149535    2.0286997903   -2.0153182876
     C     5.7983170109    2.2221955095   -2.6054403633
     C     6.5420933721    1.1545667480   -3.1532083182
     C     7.9062457945    1.4267029194   -3.8004270170
     C     7.7035838199    2.3748705487   -5.0093324612
     C     8.8363482525    2.1020217081   -2.7612575368
     C     8.5855184989    0.1372569245   -4.2990613974
     C     5.9778628294   -0.1327413937   -3.0827762943
     C     4.7377022165   -0.3573285464   -2.4982520635
     H     4.0043992078    2.8609127413   -1.5957137975
     H     6.1994231431    3.2290946921   -2.6406676902
     H     7.0498551840    1.9224538307   -5.7631270171
     H     8.6701233421    2.5809340510   -5.4811027079
     H     7.2682675353    3.3355201588   -4.7144367630
     H     8.9907471280    1.4579730574   -1.8888064690
     H     8.4397955720    3.0606719123   -2.4118668187
     H     9.8132499281    2.2960109857   -3.2159405611
     H     8.7752220896   -0.5707981187   -3.4842125636
     H     9.5535810852    0.3862741046   -4.7440510085
     H     7.9951491198   -0.3679634816   -5.0719278578
     H     6.5120542430   -0.9815533086   -3.4909612016
     H     4.3165034451   -1.3564036337   -2.4544561428
     C     0.2501161850   -1.9170793708   -0.3126954498
     N     0.3536421275   -3.0615169150   -0.5124087453
     C     0.4554914429   -4.4179897662   -0.7565264765
     C    -0.6968882161   -5.2188340633   -0.6940933497
     C    -0.5833518630   -6.5750397189   -0.9530329444
     C     0.6532915702   -7.1750059685   -1.2740083166
     C     0.7167572159   -8.6805030320   -1.5644370362
     C     0.2056282674   -9.4565343911   -0.3248569329
     C    -0.1908758141   -8.9930551589   -2.7811885287
     C     2.1452456322   -9.1572670474   -1.8871998798
     C     1.7856505525   -6.3416008200   -1.3189090081
     C     1.7018695700   -4.9767366076   -1.0680483588
     H    -1.6575778281   -4.7739694246   -0.4559457741
     H    -1.4799049041   -7.1835482638   -0.9079898725
     H     0.8287472916   -9.2576471062    0.5539978054
     H     0.2377447845  -10.5325026570   -0.5255436923
     H    -0.8287443172   -9.1996160547   -0.0743867800
     H     0.1524531200   -8.4659572994   -3.6781667012
     H    -1.2346886671   -8.7147661671   -2.6026127251
     H    -0.1672096169  -10.0674744988   -2.9918010987
     H     2.5517943501   -8.6652032448   -2.7780803050
     H     2.1301595529  -10.2323717985   -2.0896964458
     H     2.8348030429   -8.9939566696   -1.0510729896
     H     2.7564857300   -6.7587073622   -1.5559475685
     H     2.5864230080   -4.3493187117   -1.1069802922
     C    -0.1878476986    1.9041881226    0.2225532435
     N    -0.3433887463    3.0513688469    0.3623131585
     C    -0.5372017875    4.4102494088    0.5298618662
     C    -1.2959319011    4.8712303921    1.6180430466
     C    -1.4839923121    6.2354431493    1.7707470754
     C    -0.9445007933    7.1720793871    0.8631715957
     C    -1.1935358817    8.6712188076    1.0773389263
     C    -2.7202648793    8.9342531152    1.0654568332
     C    -0.6073474254    9.0882697808    2.4496733394
     C    -0.5398546965    9.5372243421   -0.0158207786
     C    -0.1911337344    6.6709785430   -0.2139036404
     C     0.0212959320    5.3081719475   -0.3889757058
     H    -1.7164108394    4.1657195582    2.3273223617
     H    -2.0675172805    6.5823362297    2.6164129188
     H    -3.1648112787    8.6551564723    0.1037206653
     H    -2.9116869635   10.0000320418    1.2285680116
     H    -3.2413553433    8.3820393316    1.8544024518
     H     0.4737858172    8.9157288809    2.4889732297
     H    -1.0688545635    8.5444943484    3.2805728962
     H    -0.7851321761   10.1559613099    2.6158261322
     H     0.5506850295    9.4287668101   -0.0306122611
     H    -0.7575311423   10.5915396442    0.1792298367
     H    -0.9284046592    9.3054462148   -1.0141175080
     H     0.2402928364    7.3522737556   -0.9366334403
     H     0.6011402360    4.9388544178   -1.2286327863
     C    -1.6306827690   -0.3430086364    0.9039536428
     N    -2.6332080689   -0.5274445917    1.4712078608
     C    -3.8163277509   -0.7310189167    2.1529121871
     C    -4.1462652706   -2.0197324816    2.6053219470
     C    -5.3311011489   -2.2006288885    3.2999924686
     C    -6.2153387438   -1.1321793549    3.5634951303
     C    -7.5098177194   -1.3879038189    4.3465875554
     C    -8.3785710575   -2.4057494042    3.5652604148
     C    -7.1503691489   -1.9729838509    5.7357444701
     C    -8.3326218022   -0.1027371999    4.5550651121
     C    -5.8538582665    0.1416491411    3.0872779315
     C    -4.6706239549    0.3546538427    2.3908661028
     H    -3.4754150384   -2.8518561095    2.4183349889
     H    -5.5749570356   -3.1975106136    3.6506348888
     H    -8.6579007263   -2.0157725258    2.5803246478
     H    -9.2997489243   -2.6057482347    4.1224415332
     H    -7.8660627361   -3.3625209642    3.4205527960
     H    -6.5282159794   -1.2788160613    6.3113304921
     H    -6.6158050258   -2.9253342844    5.6588200193
     H    -8.0678040619   -2.1551697694    6.3049455397
     H    -7.7806747127    0.6518075046    5.1271068987
     H    -9.2382363960   -0.3400467921    5.1214934705
     H    -8.6514511935    0.3413921539    3.6052055322
     H    -6.5038763661    0.9900515548    3.2610464406
     H    -4.4080525929    1.3440063400    2.0304198079
