11
-5.3822756214327899e+02 frame 51   xyz file generated by TeraChem
    Co     0.0882573061    0.1756305171    0.1243485352
     C     0.8667261434    0.3623941437   -1.5619081230
     N     1.3550670825    0.4688606729   -2.6194775267
     C    -0.2521351605   -1.7121299868   -0.1585498089
     N    -0.5307352283   -2.8507791812   -0.1738378926
     C     0.3748712666    2.0450451904    0.4901186913
     N     0.5167264938    3.1716507832    0.7746451932
     C    -1.2581670068   -0.9738456648    2.5234327491
     O    -0.7535511611    0.0186095963    2.0224647866
     H    -1.6641702607   -0.9077758139    3.5476987763
     H    -1.3128339111   -1.9277471022    1.9795820768
