23
-4.2188321640223796e+02 frame 43   xyz file generated by TeraChem
    Fe    -0.4172885252    0.1829753309   -0.2105244456
     C     2.2443642823   -1.1447764983    0.3997147706
     N     1.5727867242   -0.0906000458   -0.4397957409
     H     1.7731930459   -0.2749470391   -1.4295913281
     H     2.0368528048    0.8020034417   -0.2471994697
     H     1.8562122989   -2.1316758219    0.1438038655
     H     2.0536190120   -0.9353447371    1.4531338737
     H     3.3224694170   -1.1337015544    0.2179030832
     C    -2.0603200347   -1.7994259508   -1.5972369138
     N    -0.9160615370   -1.7365802759   -0.6205563655
     H    -0.1328503514   -2.2796603596   -0.9929045160
     H    -1.1905769556   -2.2210646358    0.2394386767
     H    -1.7528262158   -1.3517323296   -2.5445378844
     H    -2.9161017381   -1.2601407978   -1.1857840419
     H    -2.3499458572   -2.8397328970   -1.7718942178
     C     0.1579794414    3.1777985071    0.0520455497
     N    -0.4506533384    2.1161622925   -0.8318529463
     H    -0.0092478051    2.1883788843   -1.7552267519
     H    -1.4278700454    2.3821267168   -1.0013888472
     H     1.2199928036    2.9682980033    0.1944439175
     H    -0.3470385391    3.1782108735    1.0178662947
     H     0.0517918730    4.1599617492   -0.4146625592
     I    -2.0718955570    0.4460409292    1.8869116778
