53
-1.2511027574890034e+03 frame 57   xyz file generated by TeraChem
    Mn     0.2641802198   -0.2578581327   -0.2951196310
     N    -0.8634610003   -1.4013307398   -1.3350064923
     N    -0.5831975237   -1.0953120163    1.2008600704
     C    -0.9096028710   -1.4583669714   -2.6899772427
     H    -0.2412510765   -0.7942924440   -3.2304436556
     C    -1.7662460247   -2.3169343731   -3.3551601002
     H    -1.7705848593   -2.3260340207   -4.4403626221
     C    -2.6223633115   -3.1649480154   -2.6254619222
     C    -2.5603440015   -3.0891285738   -1.2142836999
     H    -3.2088244525   -3.7247985817   -0.6205722212
     C    -2.2077951764   -2.7328327549    1.8503346346
     H    -2.9438938659   -3.4806971317    1.5763512444
     C    -1.9576780950   -2.4787586541    3.2170301675
     C    -0.9885670852   -1.5010268129    3.5253451989
     H    -0.7501113483   -1.2637773681    4.5574699694
     C    -0.3287452678   -0.8358666074    2.5098130839
     H     0.4220380350   -0.0802098102    2.7216894610
     C    -1.6868330917   -2.2167704162   -0.5903516165
     C    -1.5230755251   -2.0424348010    0.8645509762
     C    -2.6955843204   -3.2050798373    4.2949442329
     C    -3.5487055647   -4.1215164583   -3.3044048838
     H    -3.6864203054   -3.8787691148   -4.3601731566
     H    -4.5264133758   -4.1499971000   -2.8114512470
     H    -3.1348477369   -5.1393643132   -3.2470246754
     H    -3.2292399101   -4.0791965866    3.9160201951
     H    -3.4331837310   -2.5325710115    4.7572981286
     H    -2.0156093734   -3.5178620777    5.0950025902
     N     2.1672416981   -0.1862466233   -0.4992535840
     N     0.3437258351    1.6420071308   -0.5310610458
     C     3.0196680348   -1.2399850784   -0.4603860161
     H     2.5796311518   -2.2170013932   -0.2846927722
     C     4.3833352781   -1.0810833247   -0.6321171763
     H     5.0277897050   -1.9532611457   -0.5927347753
     C     4.9212892691    0.2010554206   -0.8546370331
     C     4.0144542878    1.2866257399   -0.8909314607
     H     4.3953346037    2.2882253557   -1.0610437299
     C     1.8263852823    3.4806344824   -0.9268456793
     H     2.8311763071    3.8564860981   -1.0859508194
     C     0.7453025782    4.3887416195   -0.9238592684
     C    -0.5447732055    3.8570520639   -0.7139433857
     H    -1.4157342251    4.5049767101   -0.6997007781
     C    -0.7100757834    2.4990800007   -0.5232669872
     H    -1.6903132749    2.0629475446   -0.3566953434
     C     2.6577359131    1.0823575142   -0.7135430743
     C     1.6152209178    2.1254414892   -0.7311974492
     C     0.9527787051    5.8543324300   -1.1313953426
     C     6.3879613055    0.4212476719   -1.0442480377
     H     6.9513715069   -0.5128983259   -1.0138099383
     H     6.7782655624    1.0887170865   -0.2642527789
     H     6.5821467368    0.9164982415   -2.0045621063
     H     2.0005476037    6.1065135100   -1.3048542436
     H     0.5990524982    6.4163354323   -0.2565355224
     H     0.3603843640    6.2081870765   -1.9852397511
