11
-2.0569874552029814e+03 frame 28   xyz file generated by TeraChem
    Fe    -0.0549704694    0.0898137046   -0.0257142536
     N     1.8918733088   -0.1968839057   -0.3030270512
     C     3.0531186375   -0.3810617651   -0.4131447344
     S     4.6719116207   -0.6390540111   -0.5633646271
     N    -0.8495737057   -1.2559497051   -1.2619293350
     C    -1.3534114736   -2.0448119409   -1.9820858790
     S    -2.0567829517   -3.1394464577   -2.9902765114
     N    -0.3112851632    2.0448409882   -0.3563121813
     C    -0.4959638265    3.1971234388   -0.5385017241
     S    -0.7554255116    4.8015067796   -0.8003557996
    Cl    -1.0813280036   -0.2672397476    2.0402191029
