15
-4.1161232123415357e+02 frame 115   xyz file generated by TeraChem
    Fe    -0.1707771303   -0.2166137535   -0.2891682801
     C     2.9343019101    0.3488396685    0.2779270703
     N     1.8343797727    0.0925459393    0.0208391183
     C     4.3119358034    0.6739267455    0.6041266869
     H     4.4963550335    0.4715889666    1.6644660953
     H     4.4980775663    1.7335668145    0.3997237891
     H     4.9893921209    0.0644715543   -0.0030411839
     C    -0.6744185356   -2.4540774280   -2.5270057554
     N    -0.4105051415   -1.6568571216   -1.7292955449
     C    -1.0121884417   -3.4525256528   -3.5264035981
     H    -0.0961378492   -3.8694165605   -3.9577591945
     H    -1.6076917968   -2.9900630082   -4.3206432213
     H    -1.5912669026   -4.2569953717   -3.0608293163
     I    -1.1851020774    1.9671931220   -1.1118495442
     I    -1.1870523833   -1.0386488785    1.8939674715
