9
-6.5942012636838024e+02 frame 117   xyz file generated by TeraChem
    Fe     0.1087459346    0.1003783093    0.0568721142
     O     2.2872198705   -0.0643799436    0.0882601093
     N     4.1031133504   -1.6793288973    0.1412646038
     C     3.1945702170   -0.9134458572    0.1070295793
     O    -0.1642026479   -1.0770820377   -1.7289277274
     N    -2.1239218591   -1.4939866870   -3.1087706509
     C    -1.1816240404   -1.2760594892   -2.4186842499
     F    -0.1718860313    1.8777028463   -0.2818310603
     F    -0.6335208987   -0.6951343966    1.5375196156
