9
-4.7540891108589744e+02 frame 131   xyz file generated by TeraChem
    Mn    -0.0006527112    0.0007581506   -0.0002502284
     C     1.7545220675   -0.8851515759    0.3556571178
     N     2.7823505777   -1.4014334676    0.5631357896
     C     0.2675507384   -0.2896534042   -1.9584505015
     N     0.4238378035   -0.4600856069   -3.1042508652
     C    -1.7564125567    0.8856276886   -0.3551776878
     N    -2.7834119665    1.4033652271   -0.5636981905
     C    -0.2655624266    0.2893425797    1.9584477538
     N    -0.4223245250    0.4571768817    3.1045544938
