31
-2.4199909304642024e+03 frame 59   xyz file generated by TeraChem
    Co    -0.0819231765    0.0159639942    0.0512746418
     N     1.8117485763    0.2643917176    0.3011149016
     C     3.0007550229    0.1913756217    0.2324618918
     S     4.6038139523    0.1165326300    0.1640078512
     N    -0.9055417983   -1.2124426442   -1.1757802303
     C    -1.1455853156   -2.0400317030   -2.0003526498
     S    -1.4979717905   -3.1502346747   -3.1068493194
     C    -1.6707173007    4.4157403521   -1.3000719000
     C    -0.4480040168    4.2579637669   -0.6254616610
     C    -0.0334856372    2.9882451916   -0.2611199276
     N    -0.7528113061    1.8759151539   -0.5230659799
     C    -1.9280833001    2.0241466524   -1.1746436786
     C    -2.4167037225    3.2544124072   -1.5738226193
     S    -2.3178112503    5.9651272105   -1.8215994278
     H     0.1813532562    5.1087791870   -0.3871977459
     H     0.9106258109    2.8398577661    0.2525900442
     H    -2.4810979582    1.1149268162   -1.3870999731
     H    -3.3656857036    3.3083878206   -2.0970308581
     H    -1.2991608954    6.7263011074   -1.3724558439
     C    -1.6804719879   -1.3256474751    4.4503963549
     C    -0.4530595834   -0.6594458648    4.2933737826
     C    -0.0355248935   -0.2975627084    3.0239360104
     N    -0.7561274136   -0.5543415292    1.9112385339
     C    -1.9359539132   -1.1978106057    2.0587273470
     C    -2.4279147518   -1.5938859369    3.2886889938
     S    -2.3317245741   -1.8436674525    5.9992024045
     H     0.1775350675   -0.4258070266    5.1445558608
     H     0.9120294140    0.2098877437    2.8759864816
     H    -2.4901137296   -1.4062228187    1.1492470623
     H    -3.3806757195   -2.1102516847    3.3421466682
     H    -1.3115907529   -1.3996696856    6.7614181912
