29
-7.7686772810616071e+02 frame 94   xyz file generated by TeraChem
    Cr     0.2220791620   -0.2372324188   -0.2775038250
     O    -0.0202967589   -1.9873711029   -1.1666047578
     C    -1.0008116668   -2.8028405258   -1.0717473884
     C    -0.8721050649   -4.0640272854   -1.8967351020
     C    -2.1414697543   -2.6001973720   -0.2773269981
     C    -2.3439495052   -1.4592611202    0.5167159481
     O    -1.5282915207   -0.4788376589    0.6112524022
     C    -3.6052100590   -1.3299766768    1.3414616854
     H    -0.7549699160   -3.7953638818   -2.9528541817
     H    -1.7320332596   -4.7297427377   -1.7886124700
     H     0.0375363325   -4.5995762716   -1.6014658960
     H    -4.2710565024   -2.1898285167    1.2335556170
     H    -4.1405500497   -0.4203512563    1.0457268549
     H    -3.3367359534   -1.2124338164    2.3975903361
     H    -2.9075927358   -3.3662081161   -0.2772371039
     O     1.9723182165    0.0049161188   -1.1665235796
     C     2.7874989388    0.9857356212   -1.0720745622
     C     4.0483468603    0.8574571204   -1.8976306561
     C     2.5850802336    2.1261705073   -0.2772733947
     C     1.4444677438    2.3283710082    0.5172913606
     O     0.4637339313    1.5130285029    0.6113754611
     C     1.3157853147    3.5890246648    1.3430629282
     H     4.5847574946   -0.0515760351   -1.6020021798
     H     4.7134768923    1.7179389321   -1.7903460853
     H     3.7792807569    0.7393781404   -2.9535385991
     H     2.1764488500    4.2540580439    1.2366147140
     H     1.1969130985    3.3196488189    2.3988061566
     H     0.4070237351    4.1256376926    1.0469603965
     H     3.3510947702    2.8922939206   -0.2772093088
