25
-4.6633492069131455e+02 frame 35   xyz file generated by TeraChem
    Cr    -0.1550484874    0.0511139062   -0.5421386640
     N    -0.7145510604   -1.6562517940   -1.6271819058
     N    -0.7204886234   -1.0449340233    1.0722926267
     C    -1.6799171880   -2.1309538978    0.5798664152
     C    -1.0589377002   -2.7714484240   -0.6497148353
     H    -1.7483430059   -3.4834044392   -1.1157549131
     H    -0.1351382315   -3.3088157361   -0.4134265395
     H    -2.6423005454   -1.6524497521    0.3645218540
     H    -1.8406249212   -2.8523386088    1.3908230346
     H    -1.5532224770   -1.4380660562   -2.1911164933
     H    -0.0403626713   -2.0034956962   -2.3235069359
     H     0.0866156248   -1.4899455224    1.5344189881
     H    -1.1709825871   -0.4808422877    1.8098895976
     N     1.8690265592    0.1397294011   -0.4588787736
     N    -0.0541146251    2.0660659473    0.0202837048
     C     1.3980161977    2.4310216041    0.3018418424
     C     2.2648582008    1.6077273703   -0.6345723892
     H     3.3347400608    1.7120959039   -0.4148311449
     H     2.1152032179    1.8675215633   -1.6891609280
     H     1.6010830201    2.2073620296    1.3536156266
     H     1.5561707184    3.5037801974    0.1495374987
     H     2.2330406099   -0.2012699629    0.4434990854
     H     2.3367137528   -0.4425179496   -1.1713982532
     H    -0.3948349667    2.6505014124   -0.7618777559
     H    -0.6424638530    2.3630640363    0.8119341255
