21
-6.0051598447018046e+02 frame 75   xyz file generated by TeraChem
    Fe     0.1830996844    0.2072768827   -0.2084968735
     C     4.9002543196   -0.4284104982    0.3891581718
     C     4.3059826554    0.7932236441    0.7196795982
     C     2.9412035216    0.9465158109    0.5330368904
     N     2.1617704469   -0.0512928568    0.0363883724
     C     2.7446159518   -1.2392527839   -0.2786117397
     C     4.1035653241   -1.4596644121   -0.1175470557
     H     5.9675041183   -0.5752196589    0.5258406940
     H     4.8901525017    1.6168884356    1.1159311946
     H     2.4432016237    1.8806169417    0.7764760002
     H     2.0949780844   -2.0192866622   -0.6658394713
     H     4.5275265636   -2.4217912839   -0.3844616551
     O    -0.7366391137   -0.9463388981   -1.6483362764
     H    -0.4025533755   -1.0776171456   -2.5557832827
     H    -1.6460170231   -1.3002316159   -1.6355345763
     O    -0.5306508747    2.1235720288   -0.4608058073
     H    -0.1875596057    2.7834684857   -1.0929794409
     H    -1.3981657235    2.4534406651   -0.1589655384
     O    -0.8385869390   -0.3856155319    1.4918584276
     H    -0.8603808794    0.1062389784    2.3340869730
     H    -1.1090342749   -1.2984070147    1.7047411852
