9
-4.6283121947695548e+02 frame 61   xyz file generated by TeraChem
    Mn     0.7024785699   -0.6709605832   -0.7358589582
     O     2.4597393337   -0.3840322145   -0.4574170343
     N     4.0381971809    0.9470737630    0.8480086848
     C     3.2639499180    0.3186065215    0.2331990799
     O    -0.3640671759   -1.6670120935   -1.7984400817
     N    -2.7057143957   -2.1252473724   -2.3209901322
     C    -1.5894032696   -1.8909943176   -2.0533843602
     I    -0.4959641099    1.7005575172   -0.5338794453
     I    -0.4052889131   -0.9536225283    1.7437178963
