17
-1.4753630330176024e+03 frame 63   xyz file generated by TeraChem
    Mn    -0.0234036317    0.0018313321    0.0015869945
     P     2.2596157995   -1.2239334055    0.6176921150
     H     2.9906444807   -0.5637895092    1.6245856298
     H     2.0520987772   -2.5349633375    1.0900520255
     H     3.1546338072   -1.3448549717   -0.4627716568
     P     0.1191911295   -1.0021733424   -2.4579570616
     H     0.5441653889   -2.3447829873   -2.4846729384
     H    -1.1064765511   -0.9933125316   -3.1514017458
     H     1.0248660566   -0.2964655055   -3.2744141331
     P    -1.9308299951    1.7005971729   -0.7307427838
     H    -3.2039957380    1.0983597549   -0.7662205371
     H    -2.0585684882    2.8127856692    0.1235921408
     H    -1.7283097453    2.2462080938   -2.0133892575
     P    -0.4547184369    0.5258210918    2.5700849116
     H     0.0216543989   -0.4705584121    3.4438545434
     H     0.1597573583    1.7237084040    2.9854485990
     H    -1.8205961971    0.6655019353    2.8844762027
