25
-6.5401405730111514e+02 frame 73   xyz file generated by TeraChem
    Fe    -0.0003024206    0.0000126677   -0.0010152657
     C     2.7488153668    0.5624367659   -1.3604183821
     N     1.7274428670    0.3531241528   -0.8563040802
     C     4.0308511518    0.8257293609   -1.9896069469
     H     4.7837611267    1.0207195372   -1.2171141300
     H     3.9505333993    1.7033412702   -2.6406932716
     H     4.3406800748   -0.0397522058   -2.5849897539
     C     0.4247447526   -3.0413912766   -0.4552734219
     N     0.2681298808   -1.9078152315   -0.2825977089
     C     0.6217897200   -4.4653124265   -0.6717784788
     H     1.6929971109   -4.6907289229   -0.7094953892
     H     0.1578309290   -4.7624573594   -1.6188974972
     H     0.1643674482   -5.0320269859    0.1464176865
     C    -0.4256025414    3.0410579919    0.4540220439
     N    -0.2687960462    1.9076467742    0.2804746973
     C    -0.6229604280    4.4648096301    0.6713405718
     H    -0.1516535954    5.0327829627   -0.1380387384
     H    -0.1730670370    4.7583864831    1.6263391344
     H    -1.6941736040    4.6922745146    0.6933210829
     C    -2.7483418571   -0.5636731889    1.3601064264
     N    -1.7279473838   -0.3533808269    0.8544186801
     C    -4.0293686187   -0.8264689567    1.9915609281
     H    -4.8316103049   -0.7028306582    1.2547176559
     H    -4.1886829991   -0.1246856554    2.8174740805
     H    -4.0515192733   -1.8516121482    2.3769611279
