9
-4.6287761812984024e+02 frame 46   xyz file generated by TeraChem
    Mn     0.6443738264   -0.6100538165   -0.6583425356
     O     2.4803360315   -0.3495550705   -0.4017993034
     N     4.1753091401    0.8814120753    0.8375639664
     C     3.3374599821    0.2965781160    0.2488187678
     O    -0.3766482567   -1.7189328435   -1.7802337365
     N    -2.6203979880   -2.3860565704   -2.4449995816
     C    -1.5418251637   -2.0474678384   -2.1071299909
     I    -0.6102873021    1.8875005768   -0.6267276634
     I    -0.5843994239   -0.6790580121    1.8578107710
