16
-8.0639932022733831e+02 frame 57   xyz file generated by TeraChem
    Ni    -0.3906994347    0.6350131567   -0.6263363289
     O     1.4726052107    0.8823766422   -0.4738683102
     N     2.7422633929    0.3062873747    1.5249696689
     C     2.1181159803    0.5748693893    0.5613875434
     O    -0.2509430380   -1.0009666623   -1.5901668513
     N    -0.1949576060   -2.8391386920    0.0163919560
     C    -0.2215256895   -1.9463706183   -0.7554953275
     O    -2.1853263725    0.9000143058   -1.0442287628
     N    -4.0639372102    0.2254404372    0.3560227111
     C    -3.1354579209    0.5344034744   -0.2991326789
     C    -0.4468117587    0.2896663604    2.1905996259
     N    -0.6815735289    1.1264565119    1.4188437599
     C    -0.0780920468   -0.8029306891    3.0782330578
     H    -0.2840763494   -1.7447083762    2.5558127886
     H    -0.6411722470   -0.7576314388    4.0150425886
     H     0.9990632734   -0.7307462493    3.2619906228
