40
-2.5750772818281421e+03 frame 85   xyz file generated by TeraChem
    Co     0.1946837243    0.2906720570   -0.0780717495
     S     2.5912271156    0.6447921834    0.2759386819
     C     2.8933546277    1.2399170611   -1.2501078942
     N     3.0697354773    1.6418457620   -2.3428817145
     C    -0.4206515978   -3.1659890638   -3.4276004136
     C     0.4904213490   -2.1102468431   -3.6343930794
     C     0.6344622830   -1.1371409655   -2.6634443120
     N    -0.0677235600   -1.1424053401   -1.5017376298
     C    -0.9492985127   -2.1555453147   -1.3022852797
     C    -1.1535598713   -3.1662345296   -2.2203531597
     S    -0.6955518043   -4.4689877829   -4.5584525211
     H     1.0878277855   -2.0434597949   -4.5374852260
     H     1.3330611843   -0.3198124405   -2.8108385304
     H    -1.4988762843   -2.1446294929   -0.3663508664
     H    -1.8706172117   -3.9505524728   -2.0005703907
     H     0.1810356435   -4.0629815843   -5.5008252600
     C    -1.5128684699    4.5863887211   -1.5140342007
     C    -1.9720043713    3.3831737195   -2.0877210488
     C    -1.4741142869    2.1794465553   -1.6258326731
     N    -0.5566884428    2.0905655895   -0.6309117491
     C    -0.1134603325    3.2475698663   -0.0766453205
     C    -0.5569262430    4.4913456713   -0.4790467618
     S    -2.0407367065    6.1793541937   -2.0015862172
     H    -2.7050373381    3.3803284865   -2.8873966866
     H    -1.8093483406    1.2427298375   -2.0603850029
     H     0.6254588442    3.1591152886    0.7139083669
     H    -0.1584153249    5.3799764732   -0.0003416257
     H    -2.8833058447    5.7847512987   -2.9789905455
     C    -1.2665946136   -1.1101009244    4.3204237347
     C    -1.9701075650   -0.1250702480    3.5963252293
     C    -1.5324162581    0.2301075562    2.3343665311
     N    -0.4468001296   -0.3284799394    1.7431852956
     C     0.2330701308   -1.2763286587    2.4392267537
     C    -0.1357559763   -1.6897841368    3.7029677093
     S    -1.6955120607   -1.6537727726    5.9232807217
     H    -2.8468477051    0.3627293417    4.0088624823
     H    -2.0573137441    0.9898653303    1.7638098516
     H     1.0992192556   -1.7141373157    1.9516973375
     H     0.4502383521   -2.4509761979    4.2078218583
     H    -2.7663377358   -0.8501106410    6.0930408289
