19
-6.5439201558107004e+02 frame 48   xyz file generated by TeraChem
    Cr    -0.0738424333    0.2268806980   -0.0162511548
     C     4.7530138119   -0.3747539927   -0.0591090908
     C     4.0254116941   -0.4426838120   -1.2564820469
     C     2.6435404011   -0.3211658272   -1.2005124353
     N     1.9817751909   -0.1342204844   -0.0423472634
     C     2.6776715885   -0.0611746098    1.1103123746
     C     4.0610032300   -0.1815885206    1.1453772628
     C     6.1821836813   -0.5008586676   -0.0679989184
     H     4.5261213407   -0.5870168680   -2.2068556943
     H     2.0322381266   -0.3711303433   -2.0951777363
     H     2.0678457209    0.1027908751    1.9925392772
     H     4.5911273676   -0.1249159522    2.0891160202
     N     7.3399262518   -0.6049240339   -0.0757621732
     O    -0.4485576586   -1.0696521939   -1.2307260744
     H     0.1545434905   -1.7921674030   -1.4606816817
     O    -0.3620492856    1.9913244760   -0.3726985968
     H    -0.6059326819    2.5635544256    0.3707807160
     O    -0.1977468193    0.3332764068    1.8239407366
     H    -0.6087454999    1.1215552177    2.2087483039
