17
-3.7014338922190018e+02 frame 40   xyz file generated by TeraChem
    Co     0.0030108189   -0.0002765598    0.0065678369
     N     1.9248492703   -0.0653547034   -0.5055144876
     H     2.5164550610    0.4807283276    0.1450045362
     H     2.3064319174   -1.0266721301   -0.4848541460
     H     2.1241546127    0.3024777515   -1.4528799168
     N    -0.5557265312   -1.5885776605   -1.0631529186
     H    -0.1077476338   -1.6153313445   -1.9947416535
     H    -0.3439864839   -2.4970173868   -0.6140713603
     H    -1.5742448746   -1.5874114958   -1.2470508139
     N    -0.1320246780    1.9850860474    0.0347896807
     H     0.2689028051    2.4215082255   -0.8131431340
     H    -1.1164168850    2.3019968203    0.0713254150
     H     0.3449543997    2.4281770724    0.8398596666
     N    -1.2350519884   -0.3303154150    1.5350232390
     H    -1.1037250492    0.3441224709    2.3075192920
     H    -2.2379648330   -0.2887472592    1.2816634854
     H    -1.0819853338   -1.2642998399    1.9538416525
