25
-5.2502568427528377e+02 frame 30   xyz file generated by TeraChem
    Co     0.0733392820   -0.0942107900   -0.1621960682
     N    -0.8393443091   -1.2732742086   -1.6221343232
     N    -0.8893992355   -1.2161967927    1.3056908252
     C    -1.8834733151   -2.0315135171    0.5288910594
     C    -1.2976558751   -2.4648497366   -0.8353885381
     H    -2.0870345779   -2.9861468740   -1.4006804335
     H    -0.4535862709   -3.1538869847   -0.7299749242
     H    -2.7944489972   -1.4372421167    0.4101470018
     H    -2.1374332704   -2.9348460744    1.1034791969
     H    -1.6328685057   -0.7672894146   -2.0423617208
     H    -0.2247936978   -1.5424421033   -2.4022287344
     H    -0.2222667558   -1.8162448407    1.8119419503
     H    -1.3539217786   -0.6472015535    2.0274860230
     N     2.1661568977   -0.0358444525   -0.0481773398
     N     0.0777474739    1.9764144417   -0.2771424248
     C     1.4699195982    2.3597884560    0.1365402310
     C     2.4978846021    1.3711236792   -0.4519936257
     H     3.4970418047    1.6302017304   -0.0679487895
     H     2.5361075942    1.4151176697   -1.5448448252
     H     1.5057003857    2.3932299089    1.2299213502
     H     1.6936912815    3.3699525496   -0.2396047739
     H     2.4793607343   -0.2326496813    0.9137839562
     H     2.6418456489   -0.7243842838   -0.6469658652
     H    -0.1232492645    2.2838170746   -1.2406910143
     H    -0.6308845413    2.4330669603    0.3140416408
