29
-1.0013610944888691e+03 frame 162   xyz file generated by TeraChem
    Ni    -0.3748955727   -0.6351510643    0.4363026054
     O     1.0154832564   -2.0294991668    0.9857648452
     N     2.0081726719   -3.0590257385    2.9449774202
     C     1.4957405068   -2.5335938974    1.9662532842
     O    -0.9092512941   -2.1079134051   -0.8680729169
     N    -1.8079479666   -2.3279313135   -3.1105188815
     C    -1.3544499442   -2.2021516627   -1.9818393609
     C    -3.3315984549    2.3948715404   -1.5476266161
     C    -2.0272857716    2.2521675567   -2.0283388496
     C    -1.1709484225    1.3582856049   -1.3983842756
     N    -1.5777208532    0.6226696513   -0.3371041070
     C    -2.8356039599    0.7606437430    0.1407568954
     C    -3.7390328059    1.6365047627   -0.4472436248
     H    -4.0195831575    3.0877505968   -2.0227705177
     H    -1.6709497171    2.8216387308   -2.8803258961
     H    -0.1504752965    1.2175684418   -1.7430966015
     H    -3.1108162152    0.1549924267    0.9980156992
     H    -4.7426987806    1.7168064188   -0.0431419486
     C     0.9814018667    2.2228477356    3.8739176845
     C     1.5867232254    2.2996839382    2.6172706097
     C     1.1480549614    1.4568434099    1.6041044268
     N     0.1549828390    0.5624538399    1.8138272490
     C    -0.4410575479    0.4836700364    3.0268960494
     C    -0.0474001215    1.2998742348    4.0794885815
     H     1.3059457431    2.8727366852    4.6810899118
     H     2.3898742130    3.0005927295    2.4156241916
     H     1.5903713730    1.4841868424    0.6137136885
     H    -1.2350329489   -0.2477501364    3.1467356059
     H    -0.5429908419    1.2064889595    5.0400991566
