15
-1.7329651260696683e+03 frame 22   xyz file generated by TeraChem
    Mn     0.0641962276   -0.4124095825   -0.3286048163
     C     4.9021830740    0.3172606149    0.3330030690
     C     4.2132737607    0.9450564637   -0.7036596083
     C     2.8410079111    0.7546141710   -0.8141012344
     N     2.1474310026   -0.0243864477    0.0448556763
     C     2.8172147816   -0.6315870911    1.0479922316
     C     4.1883269291   -0.4834842369    1.2228645340
     H     5.9740869135    0.4510497009    0.4459386556
     H     4.7226942879    1.5795060647   -1.4210289025
     H     2.2645461363    1.2369336523   -1.5941971716
     H     2.2222063060   -1.2418194786    1.7163755149
     H     4.6779010583   -0.9912993035    2.0469828196
    Cl    -0.6465516983   -1.8828455817   -1.8021154781
    Cl    -0.3401307312    1.5162560152   -1.3518696983
    Cl    -0.3401290326   -1.4386707856    1.5987075795
