49
-1.2010110766408579e+03 frame 89   xyz file generated by TeraChem
    Fe    -0.0282823539   -0.0111589434   -0.0343566978
     O    -1.7545619891   -0.3050663015   -0.8662393227
     C    -2.2712169319   -1.4609607915   -0.4925612813
     C    -1.4836589243   -2.2507666333    0.4254730293
     C    -1.9771817946   -3.4879194763    0.8580559412
     C    -3.2305089207   -3.9945773764    0.4272247180
     C    -3.7028666788   -5.3650566889    0.9440111375
     C    -2.6987009255   -6.4654531300    0.5213438798
     C    -3.7980678386   -5.3486273840    2.4895806670
     C    -5.0879385945   -5.7635228412    0.3986277954
     C    -3.9806659794   -3.2161341801   -0.4604151388
     C    -3.5072961652   -1.9672900059   -0.9134860053
     O    -0.3249839056   -1.7343541388    0.7966046123
     H    -1.3523674762   -4.0551866127    1.5485236733
     H    -2.6409468681   -6.5265668068   -0.5722122639
     H    -2.9943610858   -7.4544965113    0.9077826564
     H    -1.6928863297   -6.2400055756    0.8890326221
     H    -4.5272671249   -4.5981894277    2.8182641470
     H    -2.8356499413   -5.0880667547    2.9407263374
     H    -4.1098035614   -6.3291073182    2.8847922588
     H    -5.8537678555   -5.0343482205    0.6875522810
     H    -5.3857662188   -6.7452939037    0.7947019096
     H    -5.0827917358   -5.8267145298   -0.6957247419
     H    -4.9477529815   -3.5611958765   -0.8211084648
     H    -4.1022252876   -1.3716607502   -1.6066287742
     O     1.6994308608    0.2807485389    0.7942948427
     C     2.2137398551    1.4390572222    0.4246962625
     C     1.4234880958    2.2318900877   -0.4884190335
     C     1.9141614075    3.4721881235   -0.9152897770
     C     3.1672312836    3.9788527289   -0.4837967333
     C     3.6362563021    5.3527859459   -0.9944203419
     C     3.7293879034    5.3440387937   -2.5401822529
     C     2.6307159458    6.4492259411   -0.5648987353
     C     5.0213956191    5.7511439460   -0.4490833085
     C     3.9200598139    3.1973420067    0.3988646579
     C     3.4496036564    1.9453743338    0.8462762043
     O     0.2652561138    1.7153007258   -0.8605689274
     H     1.2872488908    4.0419019299   -1.6018481743
     H     4.4591426467    4.5961640406   -2.8734171151
     H     4.0393386652    6.3268352439   -2.9310016582
     H     2.7667416257    5.0844167273   -2.9913978056
     H     2.5753239282    6.5056936830    0.5290342051
     H     1.6245694916    6.2231392432   -0.9312609167
     H     2.9233928255    7.4405050300   -0.9478833700
     H     5.0175693032    5.8095246862    0.6455431613
     H     5.3170839689    6.7351253315   -0.8412523013
     H     5.7880478301    5.0245006338   -0.7421660056
     H     4.8872033744    3.5421787987    0.7596305293
     H     4.0467854835    1.3470291120    1.5351198196
