21
-1.3186934070205782e+03 frame 101   xyz file generated by TeraChem
    Co     0.2076262948    0.2357204752    0.0938898681
     S     2.3614970831   -0.1392362080   -1.0301997449
     C     1.9116584179    1.1257746563   -2.0417628112
     N     1.5061356173    2.0233403309   -2.6799155333
     S    -0.4994526152   -1.4200395537   -1.5834369164
     C    -0.5828136907   -2.6207822332   -0.4138767521
     N    -0.6089878286   -3.3989843519    0.4643157522
     C    -1.9423434072    2.3618896368   -0.0755928559
     N    -0.4579512464    2.1759499232   -0.0956023402
     H    -0.0297372736    2.7862380657    0.6052532748
     H    -0.0890344138    2.5078131737   -0.9946488178
     H    -2.3310117054    2.0655016329    0.9005241219
     H    -2.3901786937    1.7333250192   -0.8478388666
     H    -2.2085957449    3.4049433928   -0.2654843556
     C    -1.1599403558   -0.3013956104    2.7528077421
     N     0.0790876884   -0.6073959389    1.9730877147
     H     0.1256448835   -1.6228799515    1.8291214280
     H     0.8992616585   -0.3694093008    2.5365963971
     H    -2.0329165902   -0.6025907338    2.1696265200
     H    -1.2047648645    0.7713167652    2.9526560963
     H    -1.1690243900   -0.8416188842    3.7030659845
