25
-5.4989556214622212e+02 frame 47   xyz file generated by TeraChem
    Ni     0.1310013635   -0.1155954022   -0.1363334822
     N    -1.6276138719   -1.0270951496   -0.8581392182
     N    -0.4435477836   -1.0549502154    1.6586777789
     C    -1.8635710898   -1.5263414418    1.5262808302
     C    -2.0581937830   -2.0788639982    0.1224005693
     H    -3.0996454423   -2.3700481791   -0.0424905447
     H    -1.4320711643   -2.9618663315   -0.0414316597
     H    -2.5167757714   -0.6652670113    1.7008974475
     H    -2.0995206412   -2.2828624250    2.2804110652
     H    -2.3752006168   -0.3333773823   -0.9574516240
     H    -1.5264585105   -1.4374863691   -1.7896894448
     H     0.1627174094   -1.8576443803    1.8535427020
     H    -0.3564023904   -0.4556329392    2.4833532689
     N     2.0141925408    0.5618484357    0.5020636399
     N     0.6251378377    0.9508652063   -1.8802631864
     C     1.7869629104    1.8508919518   -1.5741438108
     C     2.7633509534    1.0914609818   -0.6887022847
     H     3.5905707055    1.7366320789   -0.3788375152
     H     3.1882204065    0.2341970845   -1.2207393557
     H     1.3935407175    2.7331828949   -1.0589196646
     H     2.2757677644    2.1905013466   -2.4920777607
     H     1.9143108712    1.3106945546    1.1945242841
     H     2.5777383239   -0.1515381669    0.9722958287
     H     0.8852348035    0.3065487231   -2.6334764332
     H    -0.1477971702    1.5010968734   -2.2629769453
