49
-1.7905413689420225e+03 frame 79   xyz file generated by TeraChem
    Fe    -0.0004613558    0.0242107186    0.0847676002
     C     3.6337437031   -2.6959522860    1.6882542522
     C     3.7274724229   -1.2907142891    1.7066925617
     C     2.6516928106   -0.5406626428    1.2561291672
     N     1.5147359305   -1.1050819999    0.7774702770
     C     1.4332175770   -2.4597256339    0.7464461039
     C     2.4529193997   -3.2830345212    1.1999330012
     C     4.7146509109   -3.5026227338    2.1565196296
     H     4.6236678403   -0.7982570666    2.0689688543
     H     2.6989538075    0.5442588801    1.2713715364
     H     0.5248793750   -2.8853179794    0.3331299128
     H     2.3389747253   -4.3613751551    1.1659497854
     N     5.5958808777   -4.1572134299    2.5445621422
     C     0.5795491859   -1.9928619737   -4.2436821325
     C     1.6571535049   -1.3753398066   -3.5820151417
     C     1.4470456548   -0.8307561844   -2.3246755708
     N     0.2357292348   -0.8434654335   -1.7115506539
     C    -0.8044604908   -1.4285388736   -2.3581912368
     C    -0.6751341899   -2.0202781508   -3.6050062053
     C     0.7537927727   -2.5784415371   -5.5328854300
     H     2.6394217561   -1.3276669539   -4.0399114977
     H     2.2664457756   -0.3693984292   -1.7848195758
     H    -1.7646823929   -1.4170994533   -1.8552059375
     H    -1.5314267915   -2.4896685089   -4.0774514401
     N     0.8961570258   -3.0565600107   -6.5866853548
     C    -3.7606011705    2.4084716201   -1.7334266405
     C    -2.4607170224    2.6352884482   -2.2204302567
     C    -1.4008310010    1.9462889016   -1.6511667949
     N    -1.5600295081    1.0726281083   -0.6248934773
     C    -2.8132143898    0.8611831201   -0.1517475073
     C    -3.9298969086    1.4942883813   -0.6777801079
     C    -4.8829357270    3.0913940067   -2.2945968398
     H    -2.2838478568    3.3307777484   -3.0340037100
     H    -0.3916319501    2.0856657611   -2.0259560327
     H    -2.9172770048    0.1611637854    0.6720063414
     H    -4.9153179210    1.2867270576   -0.2743528186
     N    -5.7973953133    3.6501412496   -2.7467775890
     C    -0.5512237144    2.1893879347    4.4241238575
     C    -0.5162745610    2.9572457333    3.2350829844
     C    -0.3643324797    2.2985362670    2.0232502108
     N    -0.2238390970    0.9513479809    1.9222135061
     C    -0.2469463985    0.2181553695    3.0626962119
     C    -0.4179815574    0.7808808301    4.3203181981
     S    -0.7469736424    2.8525207746    6.0198345210
     H    -0.6076556492    4.0391052629    3.2440651788
     H    -0.3519586306    2.8630920448    1.0981104360
     H    -0.1259998291   -0.8544161391    2.9600525134
     H    -0.4414553125    0.1394763397    5.1968227814
     H    -0.8152397167    4.1631562378    5.6785903177
