11
-8.1277881053154465e+02 frame 60   xyz file generated by TeraChem
    Fe    -0.0948178624    0.1327648309    0.2027201728
     O     1.9170615220   -0.2977204354   -0.1771465439
     H     2.4604054114    0.1089644959   -0.8743502360
     H     2.5039759156   -0.4703806147    0.5805241349
     O    -0.7593045317   -1.1962225538   -1.3076265527
     H    -1.7031409050   -1.4363826141   -1.2989525494
     H    -0.2713334989   -2.0330581454   -1.4054203540
     O    -0.1835050253    1.9512155449   -0.8197233497
     H    -0.1561136400    2.7756778195   -0.3009662726
     H    -0.8444149962    2.0908474532   -1.5206334375
    Cl    -1.0902273804   -0.1512928471    2.1106808014
