16
-8.6577091939636944e+02 frame 102   xyz file generated by TeraChem
    Fe    -0.1026480835   -0.0391870318   -0.1468330987
     C     2.8594797283    0.2378921517    0.6991196193
     O     1.7900714196    0.3563575822    0.0987292146
     H     2.9262459153   -0.3122850662    1.6471628996
     H     3.7637965320    0.6941716185    0.2774739292
     C     0.1816151333   -1.8260400675   -2.5888626531
     O     0.2246922355   -1.5133031231   -1.3968471105
     H    -0.1695166479   -1.1241746840   -3.3570092248
     H     0.5006975731   -2.8325001581   -2.8861078941
     C    -1.2000844694    2.8981404047   -0.1042029005
     O    -0.9352975568    1.7199330765   -0.3481437810
     H    -0.8635424117    3.3771108311    0.8248417464
     H    -1.7864753548    3.4780648029   -0.8279713769
     S    -2.0665840164   -1.1011315107    0.8592369125
     H    -1.5619439917   -2.2798304699    1.2881520905
     H    -2.1294207804   -0.5478519920    2.0912607171
