17
-5.4461404910555189e+02 frame 53   xyz file generated by TeraChem
    Co    -0.1081159772    0.1623460406   -0.1558129453
     N     1.9189520241    0.1613696496   -0.3143643696
     H     2.3660907947    0.8723726778    0.2735621708
     H     2.3610412554   -0.7297239411   -0.0672330559
     H     2.2146947701    0.3677877156   -1.2747949600
     C    -0.8560171451   -2.2451320883   -2.0836092416
     O    -0.6805263175   -1.1920085303   -1.4744146323
     H    -1.4903786702   -2.2534112803   -2.9798989563
     H    -0.3891429385   -3.1824105444   -1.7498560888
     C    -0.9386986876    3.0830897000   -0.0197588098
     O    -0.3735432407    2.0815026277   -0.4653256892
     H    -1.4261100527    3.0834899568    0.9645347217
     H    -0.9498184963    3.9981581630   -0.6253068336
     C    -1.2121630653   -1.0673074325    2.5172231375
     O    -1.1058021091   -0.4634258541    1.4506199137
     H    -0.3662230086   -1.6164421577    2.9537155779
     H    -2.1726891472   -1.0604098930    3.0487123996
