13
-8.4076652462912261e+02 frame 25   xyz file generated by TeraChem
    Cr     0.1830777238   -0.1991712044   -0.2211842618
     C    -1.8843796031   -2.0287258939   -0.8211232642
     O    -1.4442248575   -0.8580090498   -1.1795368906
     C    -1.0285356070   -2.6890701577    0.3288356958
     O    -1.3252564897   -3.7954215310    0.7793219990
     O    -0.0272131927   -1.9506504506    0.7116726352
     O    -2.8594351287   -2.6100310745   -1.2976106157
     C     2.2513941920    1.6305739732    0.3750741589
     O     1.8098167158    0.4612459455    0.7365637605
     C     1.3953049336    2.2897203616   -0.7754029936
     O     1.6930142324    3.3950878819   -1.2277908453
     O     0.3928223091    1.5519891211   -1.1561152418
     O     3.2276771150    2.2114245289    0.8495433563
