104
-3.2240800111767699e+03 frame 146   xyz file generated by TeraChem
    Mn    -0.2272909327    0.3644014597   -0.3283360185
     C     1.1325551249   -2.6355426174    1.5639976698
     C     2.0051269285   -1.5834063915    1.8727321928
     P     2.0966772989   -0.1371634654    0.7415488652
     C     2.7387942075    1.2150849370    1.8215397856
     C     1.9298201694    1.6608283694    2.8806454273
     C     2.3989994072    2.6320529844    3.7630864102
     C     3.6738707616    3.1783167856    3.5952347167
     C     4.4775391939    2.7495144440    2.5381444991
     C     4.0164520764    1.7703294529    1.6541941345
     C     3.4976413541   -0.5127445658   -0.3979018729
     C     3.7320218796    0.3395276651   -1.4901618328
     C     4.8055681115    0.1094865762   -2.3510808882
     C     5.6506069091   -0.9831462400   -2.1396543046
     C     5.4147095580   -1.8442688054   -1.0665613408
     C     4.3469060370   -1.6118292913   -0.1976616216
     C     2.8154336762   -1.6770504746    3.0163332534
     C     2.7519683093   -2.8091989519    3.8285313356
     C     1.8818717784   -3.8550852894    3.5110901711
     C     1.0726342109   -3.7671243463    2.3778797220
     H     0.4886927174   -2.5765295967    0.6929372276
     H     0.9370928986    1.2456958559    3.0236439434
     H     1.7653504700    2.9608348164    4.5816054840
     H     4.0397338741    3.9315611770    4.2873850892
     H     5.4728339728    3.1644026626    2.4050171412
     H     4.6616384309    1.4343913742    0.8498035950
     H     3.0733522654    1.1823911656   -1.6772778519
     H     4.9750635061    0.7815958138   -3.1874591080
     H     6.4881034571   -1.1626870629   -2.8079134242
     H     6.0652069768   -2.6977004506   -0.8980920597
     H     4.1809413093   -2.2859622533    0.6357541737
     H     3.4908466773   -0.8683702617    3.2759387194
     H     3.3803500253   -2.8719724546    4.7123861753
     H     1.8324202783   -4.7327524120    4.1492878456
     H     0.3844441216   -4.5687993356    2.1279040910
     C    -2.5822097609   -0.0431161899   -3.9201919704
     C    -2.6430384462   -0.9869290149   -2.8804583246
     P    -1.0807262250   -1.4617183261   -2.0192941535
     C    -1.4864071183   -3.0193472890   -1.1145780834
     C    -2.2089719378   -2.9395954885    0.0892285750
     C    -2.5552496250   -4.1000245020    0.7827032087
     C    -2.1720349157   -5.3508470584    0.2935040534
     C    -1.4399201621   -5.4366730523   -0.8920885393
     C    -1.0994196628   -4.2801393656   -1.5958709223
     C     0.0295378705   -1.9993485632   -3.3844349417
     C     1.4179285499   -1.9388932020   -3.1955000627
     C     2.2892963255   -2.4002381041   -4.1844091870
     C     1.7805224445   -2.9235932544   -5.3738549026
     C     0.3987674644   -2.9870418686   -5.5717296553
     C    -0.4742114139   -2.5296787092   -4.5848002936
     C    -3.8851510505   -1.5329277828   -2.5278467582
     C    -5.0420142443   -1.1477416412   -3.2087102139
     C    -4.9714731915   -0.2219773871   -4.2490224794
     C    -3.7378986257    0.3290452436   -4.6036102160
     H    -1.6309484275    0.3875912747   -4.2192795651
     H    -2.5002894458   -1.9740318985    0.4916822276
     H    -3.1204352539   -4.0210046683    1.7068212137
     H    -2.4421395087   -6.2537858012    0.8337815539
     H    -1.1368552338   -6.4059455602   -1.2776666131
     H    -0.5389352426   -4.3664177136   -2.5201934198
     H     1.8272779752   -1.5298200518   -2.2774885300
     H     3.3610781663   -2.3439823753   -4.0199143325
     H     2.4565645255   -3.2818053210   -6.1450511368
     H    -0.0018352848   -3.3952243932   -6.4952054427
     H    -1.5453521797   -2.5845238461   -4.7493803329
     H    -3.9569885272   -2.2691521596   -1.7351710852
     H    -5.9964104655   -1.5849486369   -2.9295433234
     H    -5.8718677539    0.0688544021   -4.7824267259
     H    -3.6733645354    1.0530802564   -5.4100477892
     C    -3.0957174356    2.6457497542   -1.5738552360
     C    -1.9175924510    3.0421624667   -2.2274423167
     P    -0.2848947892    2.6359278355   -1.4769301957
     C     0.9247362618    2.8571499255   -2.8474174185
     C     1.2193365983    1.7521484062   -3.6615244157
     C     2.0786258784    1.8805764474   -4.7534857890
     C     2.6612379769    3.1168097682   -5.0396584865
     C     2.3832809360    4.2204545966   -4.2298135202
     C     1.5199506959    4.0955429244   -3.1399035660
     C     0.0530064424    4.0218045561   -0.3130249273
     C     1.3505151635    4.1887920329    0.1971457079
     C     1.6281980469    5.2211093152    1.0912045310
     C     0.6125372640    6.0894395556    1.4970547782
     C    -0.6809264691    5.9228444026    1.0017334964
     C    -0.9626390076    4.8963044276    0.0989951394
     C    -2.0081161781    3.7996948261   -3.4061130895
     C    -3.2561713435    4.1600954223   -3.9146738118
     C    -4.4236372305    3.7732109135   -3.2533679120
     C    -4.3406260480    3.0158314073   -2.0841162643
     H    -3.0457650548    2.0644872281   -0.6584482823
     H     0.7876207125    0.7810311474   -3.4386421588
     H     2.2931667454    1.0133977310   -5.3712865924
     H     3.3311829820    3.2203292890   -5.8884760666
     H     2.8364632029    5.1834712229   -4.4469854882
     H     1.3124975743    4.9592397629   -2.5166672336
     H     2.1522220592    3.5230839324   -0.1079781464
     H     2.6369371643    5.3392815762    1.4741831905
     H     0.8288707552    6.8925496041    2.1957637168
     H    -1.4755646809    6.5951154249    1.3122396042
     H    -1.9714356883    4.7837650311   -0.2821990386
     H    -1.1094839435    4.1146391409   -3.9257691208
     H    -3.3140873052    4.7515948436   -4.8241443153
     H    -5.3937322846    4.0609791298   -3.6487025564
     H    -5.2439660329    2.7074682061   -1.5661339044
     I    -1.8163371343    0.7285196276    1.7556222803
