49
-1.4650712090444422e+03 frame 98   xyz file generated by TeraChem
    Mn    -0.0328519658   -0.0830511650    0.0184775729
     C     4.8615514296    0.3108314596   -0.7956241977
     C     3.9733313563    1.3170974464   -1.2298391848
     C     2.6176031238    1.1577040726   -0.9817535095
     N     2.1061394894    0.0734519481   -0.3455609125
     C     2.9683014270   -0.8882510024    0.0770219416
     C     4.3378874606   -0.8161297188   -0.1270081398
     C     6.2614413406    0.4318015283   -1.0246401321
     H     4.3385129321    2.1964062292   -1.7499890126
     H     1.9117107091    1.9159646125   -1.3056862454
     H     2.5388817167   -1.7425064563    0.5925043893
     H     4.9893366457   -1.6116487370    0.2194454057
     N     7.4118754008    0.5311380940   -1.2123910835
     C    -2.1755731078   -3.5581396900   -2.8238190223
     C    -0.7741364612   -3.5177463866   -2.6708034498
     C    -0.2234653097   -2.5283443226   -1.8700833575
     N    -0.9720633025   -1.6000915475   -1.2208560188
     C    -2.3197462405   -1.6388449496   -1.3800292244
     C    -2.9605668203   -2.5907229746   -2.1596432240
     C    -2.7886328514   -4.5516386086   -3.6379686132
     H    -0.1376255840   -4.2434882449   -3.1660128706
     H     0.8525649059   -2.4708442526   -1.7404285245
     H    -2.8992504862   -0.8782715000   -0.8646568107
     H    -4.0414219919   -2.5887309973   -2.2545530984
     N    -3.2936284233   -5.3682977957   -4.3068922078
     C    -2.2013009186    4.2372685295   -1.1517964814
     C    -1.8898286172    3.2965888229   -2.1565626763
     C    -1.2977526670    2.0994780257   -1.7832028943
     N    -1.0111550760    1.7887423790   -0.4921016971
     C    -1.3064544656    2.7009573858    0.4687876836
     C    -1.9003146714    3.9235132333    0.1901778354
     C    -2.8055374051    5.4818767086   -1.4872950754
     H    -2.1115054137    3.4996334369   -3.1991000727
     H    -1.0486666063    1.3553188742   -2.5336525530
     H    -1.0690303628    2.4324061206    1.4932967274
     H    -2.1317336138    4.6180849851    0.9909017751
     N    -3.3034737444    6.5038166236   -1.7635298960
     C    -0.5620188367   -0.9832720557    4.8819564610
     C     0.5092958868   -0.1965545133    4.4074823352
     C     0.6141480753    0.0250886565    3.0430689095
     N    -0.2706883758   -0.4766888040    2.1415970390
     C    -1.2960125171   -1.2352155163    2.6048034889
     C    -1.4817057236   -1.5129396698    3.9514457335
     C    -0.7120302065   -1.2396360669    6.2736273164
     H     1.2363301610    0.2266095292    5.0926604092
     H     1.4313912811    0.6213942711    2.6483930022
     H    -1.9853607603   -1.6352298482    1.8679022710
     H    -2.3153186374   -2.1256498344    4.2782520099
     N    -0.8359884688   -1.4494585901    7.4183828482
