37
-1.3592231437322639e+03 frame 43   xyz file generated by TeraChem
    Fe    -0.7460185319   -0.7700487473    0.1401086821
     N     1.0705926269   -1.0390086246   -0.1846865450
     C     2.2114309844   -0.6713623341   -0.2194276300
     S     3.7479032124   -0.2214273361   -0.2880764181
     C    -2.2948952935   -2.4440420324   -4.0737865225
     C    -1.0121537203   -2.7497463869   -3.6211405834
     C    -0.5674204351   -2.2040398563   -2.4214356706
     N    -1.3371456071   -1.3805957062   -1.6751245608
     C    -2.5766746586   -1.0813506027   -2.1233693178
     C    -3.0920800663   -1.5924607209   -3.3072332123
     H    -2.6668271364   -2.8577415414   -5.0061433821
     H    -0.3553434911   -3.4031250911   -4.1853377106
     H     0.4231364247   -2.4055119959   -2.0304588832
     H    -3.1614891236   -0.4015736073   -1.5097034853
     H    -4.0946782709   -1.3209803932   -3.6197025329
     C    -1.5094953285    3.8121326555   -0.7438789849
     C    -0.5507687335    3.0899944280   -1.4549260652
     C    -0.3603116863    1.7445709540   -1.1622532574
     N    -1.0663866026    1.1131748505   -0.1979310666
     C    -1.9881222031    1.8165987620    0.4967054626
     C    -2.2429373688    3.1595713298    0.2475185917
     H    -1.6795919546    4.8632646174   -0.9552155303
     H     0.0479916201    3.5562725158   -2.2298122786
     H     0.3718923658    1.1415989864   -1.6851960198
     H    -2.5197328070    1.2809453699    1.2773752347
     H    -2.9961834015    3.6795591168    0.8295408614
     C    -0.0018393137   -0.3417878594    4.8519608904
     C    -1.0159330678   -1.1582569446    4.3499710850
     C    -1.2048806800   -1.2165554301    2.9745680562
     N    -0.4521488756   -0.5112402330    2.1026447059
     C     0.5287140003    0.2756188933    2.5928778612
     C     0.7813628347    0.3851723844    3.9555273830
     H     0.1774765687   -0.2786154959    5.9208380569
     H    -1.6466218743   -1.7483940819    5.0060110260
     H    -1.9741630372   -1.8555451384    2.5459225659
     H     1.1235802290    0.8105249265    1.8625259630
     H     1.5863271520    1.0255895852    4.2995372586
