45
-1.2874340307329576e+03 frame 40   xyz file generated by TeraChem
    Co     0.2107333592   -0.2298218352   -0.3110486019
     C    -2.3215686774   -1.5417486517    3.0596493997
     C    -3.0844918124   -2.5259430232    2.4496735860
     C    -2.8766692160   -2.8173661067    1.0762381916
     C    -3.6108468563   -3.8097398217    0.3626649833
     C    -3.3660211737   -4.0541165585   -0.9862530781
     C    -2.3741173604   -3.3189694837   -1.6994718795
     C    -2.0820883405   -3.5264462279   -3.0728453097
     C    -1.0983153387   -2.7626910515   -3.6824290205
     C    -0.4153467075   -1.8006117147   -2.9267499979
     N    -0.6691465456   -1.5859411478   -1.6209654474
     C    -1.6300969985   -2.3254648959   -1.0125003630
     C    -1.8837100410   -2.0723314846    0.3895672438
     N    -1.1450125874   -1.1109852442    0.9983738968
     C    -1.3599975333   -0.8577987577    2.3042420275
     H    -2.4542942086   -1.2956560342    4.1078863431
     H    -3.8355978957   -3.0740602863    3.0125054787
     H    -4.3733533557   -4.3819449396    0.8837556679
     H    -3.9374655221   -4.8170224934   -1.5075964246
     H    -2.6294157545   -4.2779691407   -3.6358908858
     H    -0.8517460579   -2.8951475724   -4.7305880801
     H     0.3552109806   -1.1854194899   -3.3814290461
     H    -0.7454383643   -0.0869005667    2.7591973505
     C    -0.2894756198    4.1136580644   -0.9442860141
     C     1.0223594615    4.5476676030   -0.8290570460
     C     2.0494429505    3.6023972509   -0.5717476101
     C     3.4242694696    3.9548141805   -0.4367305226
     C     4.3927630729    2.9870172845   -0.1829930057
     C     4.0414569491    1.6118318092   -0.0486743339
     C     4.9875213520    0.5854175631    0.2084375070
     C     4.5545917484   -0.7268274333    0.3229463630
     C     3.1894663394   -1.0081524255    0.1833302882
     N     2.2705632495   -0.0545849027   -0.0653660274
     C     2.6797275055    1.2340570524   -0.1784530637
     C     1.6727388731    2.2403047584   -0.4425483478
     N     0.3844832948    1.8301173633   -0.5562418257
     C    -0.5697660570    2.7482895401   -0.8051179913
     H    -1.0977601030    4.8097752353   -1.1419512659
     H     1.2694927243    5.6007819451   -0.9349671282
     H     3.7165936286    4.9967175957   -0.5336551693
     H     5.4343761085    3.2801805959   -0.0854947576
     H     6.0403946407    0.8334007011    0.3147586752
     H     5.2513165963   -1.5346370114    0.5204092305
     H     2.8194944891   -2.0246834071    0.2730844032
     H    -1.5859482482    2.3774828214   -0.8953353044
