15
-1.2184188573252361e+03 frame 78   xyz file generated by TeraChem
    Fe     0.2457468780   -0.0776854793   -0.6380343682
     S     2.3340052439    0.8671292027   -1.1024237814
     C     2.3881347875    1.9343898184    0.1971553708
     N     2.3504907000    2.6805304905    1.1012656730
     S     1.3639641315   -1.9203550956   -1.5885417993
     C     0.8419500570   -3.1894016178   -0.6248410246
     N     0.4164839241   -4.0307297524    0.0740603423
     N    -0.5941595982    1.6900913464   -0.0988891952
     H    -1.5891837255    1.6641036595    0.1337685131
     H    -0.1061662873    2.0916754375    0.7105209562
     H    -0.4977914894    2.3845919396   -0.8457746472
     N    -1.2289303804   -1.1853038876    0.2023503522
     H    -1.6407484946   -0.7773134897    1.0451097331
     H    -1.9998065971   -1.3336533497   -0.4569663231
     H    -0.9073479250   -2.1255002567    0.4664089723
