17
-1.4948444550870011e+03 frame 54   xyz file generated by TeraChem
    Fe     0.0013170540   -0.0302264916    0.0087368633
     P     2.5690721753    0.3611663286    0.4316043385
     H     2.8238412577    1.1331390954    1.5827627208
     H     3.2799479228   -0.8424941245    0.6106187284
     H     3.2066114125    1.0314108490   -0.6314844513
     P    -0.3305909074   -1.4560895407   -2.1787369761
     H     0.1609438906   -0.8147111505   -3.3330476625
     H     0.3243284281   -2.7025985508   -2.1224411453
     H    -1.6840823341   -1.7441869077   -2.4447064082
     P    -1.1697594531    2.3059113458   -0.3475191599
     H    -0.6595128014    3.0122010050   -1.4551173653
     H    -2.5569231534    2.1906869433   -0.5684110675
     H    -1.0253201755    3.1665467184    0.7591344545
     P    -1.0682036702   -1.2169290829    2.0953828677
     H    -0.4864513996   -2.4708374828    2.3695114948
     H    -0.9373761954   -0.4649548726    3.2799090590
     H    -2.4482418517   -1.4582156146    1.9435977633
