13
-2.0877934805772466e+03 frame 258   xyz file generated by TeraChem
    Fe     0.0017300757    0.0018768686    0.0007889579
     N     1.7357417880   -0.8663411057   -0.1804433927
     C     2.7839421726   -1.3947600356   -0.2809644472
     S     4.2489909542   -2.1330050244   -0.4227327061
     N    -0.3238771111   -0.2808641400   -1.8984692687
     C    -0.5167841358   -0.4463379857   -3.0489058412
     S    -0.7863168547   -0.6772272825   -4.6569809597
     N    -1.7413853670    0.8519205046    0.1805156205
     C    -2.7970202390    1.3643307162    0.2859336672
     S    -4.2729105304    2.0794395005    0.4344667179
     N     0.3306311985    0.2965992952    1.8969905942
     C     0.5286987908    0.4769529214    3.0443504246
     S     0.8065422945    0.7283940416    4.6478877754
