20
-5.3261241219569979e+02 frame 36   xyz file generated by TeraChem
    Fe     0.0339436169   -0.0491791319   -0.2520666242
     C     3.1419784758    0.3920963196    0.2075760863
     N     2.0045251007    0.2361994036    0.0291395839
     C     4.5595618446    0.5842580407    0.4352243667
     H     4.7633167158    0.5775424170    1.5126494845
     H     4.8759024325    1.5445255185    0.0109576986
     H     5.1219304866   -0.2257782797   -0.0445668127
     C    -0.6279748719   -2.2176196007   -2.4650758143
     N    -0.3784297947   -1.4171380500   -1.6607292506
     C    -0.9431341431   -3.2173022888   -3.4645873004
     H    -0.0155725459   -3.6317101635   -3.8773414763
     H    -1.5252939810   -2.7590350631   -4.2729865357
     H    -1.5287969024   -4.0234437409   -3.0068357256
     C    -1.3999183784    2.7311691988   -0.7785340803
     N    -0.8700414990    1.7137555666   -0.5940727305
     C    -2.0626822096    3.9993892834   -1.0035718774
     H    -1.7196231481    4.4353570999   -1.9491756918
     H    -1.8297752597    4.6861160291   -0.1808442064
     H    -3.1474864997    3.8442810019   -1.0469157011
     I    -0.8902098235   -0.9307306202    1.9408311839
