8
-1.5991630969355824e+03 frame 55   xyz file generated by TeraChem
    Mn     0.1489617638   -0.5111566037    0.2783121894
     C     2.9389448935    0.5567481340   -0.4377109428
     O     2.2633933200   -0.3696466886   -0.0138050034
     H     4.0335986430    0.4594625599   -0.4646580750
     H     2.4730624349    1.4874705059   -0.7911306675
    Cl    -0.0883950864   -2.4525586589   -0.7057433824
    Cl    -0.1822266256    1.6545978152   -0.0693775709
    Cl    -0.8233273063   -0.8243602786    2.2035353160
