46
-1.5602616949555902e+03 frame 62   xyz file generated by TeraChem
    Ni    -0.2466030378    0.2478568042    0.2530503436
     C     4.5604535020    0.4068564501    0.7328778041
     C     3.8909605979    1.4092391248    0.0297438201
     C     2.5082619082    1.3366408053   -0.0942683770
     N     1.7860894315    0.3312499184    0.4472330540
     C     2.4379026082   -0.6379641942    1.1305879778
     C     3.8176133365   -0.6356073837    1.2910951879
     H     5.6399845615    0.4372235442    0.8445763322
     H     4.4269741435    2.2385505918   -0.4191985559
     H     1.9549941248    2.0946632203   -0.6366470628
     H     1.8223284565   -1.4226855037    1.5573729880
     H     4.2953768361   -1.4355454069    1.8466291395
     C    -1.1850164207   -3.1225109031   -3.0890286949
     C     0.0673734580   -3.0818901121   -2.4742230985
     C     0.3206928580   -2.0969947831   -1.5259712902
     N    -0.6024087513   -1.1742384220   -1.1826108808
     C    -1.8135434415   -1.2115530556   -1.7828863876
     C    -2.1421890570   -2.1694063035   -2.7344614879
     H    -1.4110095008   -3.8809315198   -3.8323390679
     H     0.8410324132   -3.8006541343   -2.7223411324
     H     1.2803996012   -2.0339291883   -1.0253431980
     H    -2.5255360851   -0.4433680526   -1.4941762172
     H    -3.1276685927   -2.1612606695   -3.1878061928
     C    -1.4730317747    4.2558776388   -2.1724499390
     C    -0.8928397163    3.1912904137   -2.8661750276
     C    -0.5366326230    2.0459031666   -2.1655063124
     N    -0.7278514837    1.9252057474   -0.8322848291
     C    -1.2896205319    2.9600592031   -0.1642581461
     C    -1.6751915371    4.1357805168   -0.7964222036
     H    -1.7627117367    5.1623960323   -2.6950718013
     H    -0.7185994384    3.2439132655   -3.9355604721
     H    -0.0891267352    1.1939991571   -2.6660745571
     H    -1.4338743765    2.8352986162    0.9061661950
     H    -2.1240317309    4.9362255037   -0.2181899752
     C    -1.7227767758   -1.7301140990    4.4353361072
     C    -2.1327598333   -2.2681922695    3.1990012125
     C    -1.6464934842   -1.7264612137    2.0238138717
     N    -0.7787564405   -0.6862079252    1.9889844065
     C    -0.3766991543   -0.1709435591    3.1803485600
     C    -0.8149491299   -0.6496332354    4.3977329366
     S    -2.2554561528   -2.3105002207    5.9960354327
     H    -2.8248186320   -3.1021224444    3.1481203229
     H    -1.9500684755   -2.1336847378    1.0652817962
     H     0.3305541983    0.6526139052    3.1393657214
     H    -0.4556504251   -0.1892295655    5.3123825664
     H    -3.0706427816   -3.2837174465    5.5402890218
