49
-1.4479383825448210e+03 frame 77   xyz file generated by TeraChem
    Cr     0.0082413476   -0.0311562594   -0.0052917641
     C     4.8963362987   -0.6292519554    0.1392852235
     C     4.2387689038   -0.0924369867   -0.9794964479
     C     2.8545718250   -0.0244809258   -0.9708362737
     N     2.0953060593   -0.4399657138    0.0745560506
     C     2.7398287511   -0.9515963250    1.1517009983
     C     4.1193476358   -1.0705569532    1.2224949993
     C     6.3232175823   -0.7260030572    0.1738704998
     H     4.7980273100    0.2604389140   -1.8387971911
     H     2.3224966816    0.3691394728   -1.8300124312
     H     2.1242545909   -1.2794701554    1.9799514685
     H     4.5855448775   -1.4958454579    2.1042807520
     N     7.4825633477   -0.8053218588    0.2027257671
     C    -0.5041383430   -1.9769327274   -4.4944951710
     C     0.0993182144   -2.6714431102   -3.4331648556
     C     0.2566885527   -2.0250845304   -2.2171299620
     N    -0.1590533918   -0.7530395952   -1.9930418463
     C    -0.7459621183   -0.0934518378   -3.0208108253
     C    -0.9284765870   -0.6561810344   -4.2746732044
     C    -0.6810167531   -2.5997611430   -5.7701574715
     H     0.4423789076   -3.6923671108   -3.5584077464
     H     0.7408168138   -2.5336447039   -1.3891469936
     H    -1.0768722114    0.9187215010   -2.8211315506
     H    -1.3954196463   -0.0826820349   -5.0676473173
     N    -0.8251127475   -3.1062221464   -6.8064764897
     C    -3.8182101667    3.0207111997   -0.3194935926
     C    -2.5141772539    3.4446792249   -0.6273411935
     C    -1.4771504917    2.5281865374   -0.5388655725
     N    -1.6624785953    1.2384046230   -0.1652040978
     C    -2.9199960667    0.8379187848    0.1340338409
     C    -4.0164603124    1.6849276637    0.0672874707
     C    -4.9192846810    3.9307738532   -0.3979930313
     H    -2.3171128689    4.4674281089   -0.9290783734
     H    -0.4605796264    2.8307821196   -0.7788296174
     H    -3.0421778340   -0.1965505605    0.4380715351
     H    -5.0068416255    1.3173534455    0.3120639628
     N    -5.8138903896    4.6702922061   -0.4614123968
     C    -0.7229038392   -0.4523883924    4.8268726523
     C    -0.4119495273    0.8034860765    4.2801546401
     C    -0.1991826675    0.9035530704    2.9131445623
     N    -0.2705782669   -0.1589638350    2.0778433217
     C    -0.5704904513   -1.3690877862    2.6109185247
     C    -0.8043279078   -1.5592364978    3.9646994792
     C    -0.9520689061   -0.6026438222    6.2310687998
     H    -0.3390018882    1.6828228254    4.9104751207
     H     0.0353599755    1.8611902687    2.4604360061
     H    -0.6241322928   -2.2150806622    1.9289636920
     H    -1.0438823836   -2.5458204229    4.3457869368
     N    -1.1378592200   -0.7249531802    7.3720078196
