16
-7.2651039549840243e+02 frame 43   xyz file generated by TeraChem
    Cr     0.5958490203   -0.8103977931   -1.5523450599
     C     4.6132024281    0.4607029613    1.0102261222
     C     4.1269078091    1.3188880163    0.0131383680
     C     2.9755074838    0.9542718129   -0.6732553476
     N     2.3224850249   -0.1935088473   -0.4195264402
     C     2.7729768117   -1.0085896193    0.5518850484
     C     3.9161767449   -0.7244403729    1.2874717926
     C     5.8018054393    0.7949230631    1.7416360036
     H     4.6320542442    2.2503502057   -0.2151185804
     H     2.5344105990    1.5872135080   -1.4350872498
     H     2.1759218996   -1.8943154149    0.7404271182
     H     4.2542840521   -1.4024705892    2.0624993560
     N     6.7656753390    1.0654456534    2.3320989149
     F     0.0837529728   -1.9702230732   -2.7725233947
     F     0.3417406422    0.8825402359   -1.9092679068
     F    -0.0428291187   -1.5573166840   -0.0987450144
