65
-2.0253123565992487e+03 frame 37   xyz file generated by TeraChem
    Fe    -0.0771717636    0.0729945742    0.1312165035
     N    -1.2506566666   -0.8989868402   -1.1646266751
     N    -0.5927777952   -1.4308265375    1.3102708960
     C    -1.4381402417   -0.6081754754   -2.4652205129
     H    -0.9891052106    0.3097136403   -2.8259932075
     C    -2.1504787224   -1.4395520302   -3.3208556160
     H    -2.2571351826   -1.1609244934   -4.3641129646
     C    -2.7047649595   -2.6259430099   -2.8294039693
     C    -2.5058183263   -2.9224571161   -1.4723291657
     H    -2.8936637024   -3.8457829807   -1.0659826783
     C    -2.0211283966   -3.3521260253    1.4931807597
     H    -2.7221352712   -4.0356442840    1.0360881681
     C    -1.7253416341   -3.4793641714    2.8590312211
     C    -0.8440799854   -2.5483831328    3.4182468285
     H    -0.5836265775   -2.5839975449    4.4710667958
     C    -0.2992350075   -1.5507850572    2.6177515107
     H     0.3852357557   -0.8156310923    3.0295820942
     C    -1.7698124793   -2.0596771554   -0.6698780233
     C    -1.4624057685   -2.3177148635    0.7512890039
     C    -2.3576438843   -4.5645144250    3.6918109570
     C    -3.4610215536   -3.5751355981   -3.7209318990
     C    -2.8875509436   -5.0091179958   -3.6695380506
     H    -4.5110352407   -3.6336366802   -3.3982830679
     H    -3.4713242329   -3.2053507559   -4.7520524963
     C    -3.8965333265   -4.6018322298    3.5548708253
     H    -2.0687062087   -4.4529548066    4.7424882211
     H    -1.9853064268   -5.5476841674    3.3677705076
     O    -4.4918050898   -4.0680101332    2.6519131799
     O    -4.5462983241   -5.3084275072    4.4901295175
     H    -3.9500340432   -5.6845188532    5.1603754577
     O    -2.1104944583   -5.3787964746   -2.8245656483
     O    -3.3345724752   -5.8481530098   -4.6145269524
     H    -3.9547791749   -5.4245908553   -5.2330442407
     N     1.8686209295    0.3195788103    0.4869296867
     N     0.1441336350    1.8349197725   -0.7476184305
     C     2.7033822882   -0.5735065426    1.0506774136
     H     2.2507020252   -1.4808602634    1.4334213196
     C     4.0747334166   -0.3666863495    1.1300714436
     H     4.7011293605   -1.1281140883    1.5829974307
     C     4.6269213516    0.8097888582    0.6130152820
     C     3.7513911344    1.7380894985    0.0289568884
     H     4.1494354490    2.6426944939   -0.4089030257
     C     1.6781579584    3.6448108384   -1.1193663536
     H     2.6748353674    4.0527137644   -1.0274625550
     C     0.6530729293    4.4422155236   -1.6516185347
     C    -0.6307069968    3.8907518504   -1.7107208454
     H    -1.4695876385    4.4608726238   -2.0963653952
     C    -0.8430533460    2.5938423002   -1.2571369324
     H    -1.8304937453    2.1445924827   -1.2885993271
     C     2.3896004873    1.4697901967   -0.0316157351
     C     1.3978672531    2.3617475783   -0.6636465728
     C     0.9287871807    5.8494817014   -2.1135407973
     C     6.1100907852    1.0678433915    0.6456211738
     C     6.6825479344    1.3738659527   -0.7572458481
     H     6.3235307903    1.9409039386    1.2797964446
     H     6.6364971372    0.2187742372    1.0949709013
     C     1.6368885912    6.6995284527   -1.0349398835
     H    -0.0001231832    6.3331771770   -2.4346749398
     H     1.5912099531    5.8305533346   -2.9916199626
     O     2.1842846283    6.2208418308   -0.0727189893
     O     1.6454625090    8.0223431449   -1.2502728266
     H     1.1684173827    8.2761551668   -2.0591849907
     O     5.9905978217    1.6458456141   -1.7064278563
     O     8.0191244246    1.3535057795   -0.8553584687
     H     8.4549003157    1.1223608787   -0.0168466357
