15
-1.2971589090059920e+03 frame 69   xyz file generated by TeraChem
    Cr     0.2812727250    0.3793184443   -0.4772213911
     S     2.4700679863    0.0400334016   -0.7290485208
     C     2.2713014101   -1.2716070991    0.3266653512
     N     2.0252619761   -2.1313980731    1.0820097516
     S    -1.0358589817   -0.8852156437   -1.7479451002
     C    -1.2259164254   -2.1505895211   -0.6372101870
     N    -1.3402014221   -2.9605944073    0.1979268903
     C    -0.4932196730    3.2149810554   -1.3757091699
     O     0.0326940620    2.1022301633   -1.3803361679
     H    -1.1860995411    3.5166154531   -0.5794250314
     H    -0.2642047741    3.9163578226   -2.1865654503
     C    -0.6412999308   -0.7247611471    2.1657201743
     O    -0.5723675488    0.1351405542    1.2776658612
     H    -1.3274540698   -0.5526983284    3.0027164873
     H    -0.0259957981   -1.6317560972    2.1306718389
