35
-1.0139261612539808e+03 frame 44   xyz file generated by TeraChem
    Ni    -0.2989836207   -0.2480866590   -0.1087361285
     C     4.4085247807   -0.0217353065    0.8604238293
     C     4.0293373147    0.0437432120   -0.4820773143
     C     2.6788770245   -0.0402978303   -0.7985243897
     N     1.7288225687   -0.1831285912    0.1443500844
     C     2.0901670914   -0.2362166401    1.4449520035
     C     3.4228785375   -0.1626879038    1.8368568464
     H     5.4563574717    0.0396893151    1.1385828669
     H     4.7639849966    0.1591877683   -1.2718022755
     H     2.3331980727    0.0056966362   -1.8268569045
     H     1.2633786868   -0.3285718520    2.1429095277
     H     3.6746534989   -0.2127023639    2.8907368625
     C    -1.1841746425   -2.8123820860   -4.1263867988
     C    -0.0431694996   -3.0673047657   -3.3650965533
     C     0.2300636252   -2.2508171531   -2.2738899872
     N    -0.5624957095   -1.2157582054   -1.9246159968
     C    -1.6691514221   -0.9781303761   -2.6603463486
     C    -2.0118321821   -1.7486603558   -3.7654506683
     H    -1.4262717866   -3.4340668283   -4.9829155604
     H     0.6246697972   -3.8876282125   -3.6049314217
     H     1.1021306658   -2.4179049854   -1.6500749355
     H    -2.2892952617   -0.1458045682   -2.3418788509
     H    -2.9123238354   -1.5185783520   -4.3246084677
     C    -1.3755095405    4.4018799273   -0.7576718946
     C    -0.9036309853    3.6852198518   -1.8594599367
     C    -0.6087385943    2.3365920507   -1.7010610097
     N    -0.7642762241    1.7012812311   -0.5245255898
     C    -1.2140037526    2.3919042683    0.5451832287
     C    -1.5316398527    3.7436203819    0.4619386171
     H    -1.6156940762    5.4567972417   -0.8499540694
     H    -0.7654640780    4.1600398437   -2.8250135875
     H    -0.2427299992    1.7350565457   -2.5276643628
     H    -1.3023679271    1.8143047654    1.4596969319
     H    -1.8933099310    4.2640599606    1.3422517760
     F    -0.8105357808   -0.3091458061    1.6356725271
