14
-5.2908588321687250e+02 frame 40   xyz file generated by TeraChem
    Cr     0.3391402465   -0.1670711323   -0.5079811397
     C     3.2190716473    0.2948066644    0.4702663790
     O     2.2269010467    0.1301234335   -0.2541394359
     H     3.1089768682    0.5323637103    1.5362653183
     H     4.2160110725    0.2013539761    0.0225796384
     C    -1.7184654839   -1.9624780009   -1.8651231529
     O    -0.7250194484   -1.2349294901   -1.7212961184
     H    -2.4869660377   -2.0354820833   -1.0845606548
     H    -1.8164259114   -2.5343734876   -2.7958432900
     C    -0.5864662137    2.5810972726   -1.1888712711
     O     0.0272792878    1.5162284737   -1.3539682786
     H    -1.1920276611    2.7657238913   -0.2921768809
     H    -0.5051558875    3.3444160641   -1.9721838039
     F    -0.4035301007   -0.3603700173    0.9857187567
