9
-1.9889954690976233e+03 frame 54   xyz file generated by TeraChem
    Cr     0.5124272965   -0.5609388556   -0.5456259663
     S     2.7947335296   -0.3202903320   -0.7630972946
     C     3.1734221262    0.7219410824    0.5215784388
     N     3.4875804693    1.4364010468    1.3928238907
     S     0.4983287401   -2.0973323451   -2.2614700912
     C    -1.1575458120   -2.4024330270   -2.4735150731
     N    -2.2850637349   -2.6482163450   -2.6640482816
    Cl    -0.4863246045    1.3550883253   -0.8774854909
    Cl    -0.3423348008   -1.4549007467    1.2586965964
