15
-1.3343345623535583e+03 frame 95   xyz file generated by TeraChem
    Fe    -0.2352463998    0.2729504092    0.3517370120
     N     0.8641860281    1.3750548193    1.3919661654
     C     1.4495598776    2.0610268641    2.1696835999
     S     2.2547711096    2.9866384857    3.2056167164
     N    -1.2267860192   -0.8529071625   -0.7492424135
     C    -1.8665023301   -1.4086369410   -1.5926042254
     S    -2.7211233538   -2.1787601851   -2.7036235224
     C     0.3188426847    2.1119097593   -1.8513819570
     O    -0.4223039706    1.6950651565   -0.9685644412
     H    -0.0143664405    2.9536082367   -2.4698801683
     H     1.3045398306    1.6667892025   -2.0415935800
     C    -0.3980083071   -2.2495872455    1.7935259178
     O    -0.2397676586   -1.0329117906    1.8399865710
     H    -0.3571031881   -2.8206762330    2.7287612040
     H    -0.5826677103   -2.7763533392    0.8492968888
