14
-4.9934769635285096e+02 frame 50   xyz file generated by TeraChem
    Co     0.3926154546    0.7476943631   -0.5887996542
     C     3.0874491003   -0.0411559821    0.1686675240
     O     2.0346086594   -0.2093681913   -0.4633468009
     H     3.1752027694    0.7069295820    0.9660399849
     H     3.9491058364   -0.6695259237   -0.0870377911
     C    -0.1714581446   -1.8294597404   -1.6020107889
     O    -0.5794016439   -0.7284853000   -1.2104923274
     H    -0.9207284349   -2.5383179382   -1.9771717364
     H     0.8898031716   -2.1024572577   -1.5856032495
     C    -2.1152980212    2.1477254790   -1.1462797377
     O    -0.8885412506    1.9993603669   -1.1525921529
     H    -2.7848730463    1.4228938155   -0.6662528407
     H    -2.5271634343    3.0370957917   -1.6391172528
     I    -0.1594163467    0.8571416421    1.8482965824
