8
-1.5606898516665915e+03 frame 21   xyz file generated by TeraChem
    Fe    -0.1024879741   -0.0436025128   -0.0839190983
     N     1.8378950138    0.1229836732    0.0504905939
     H     2.1096833448    1.0945045144   -0.1125281929
     H     2.1354127970   -0.1592623860    0.9865809818
     H     2.2833991471   -0.4829502263   -0.6411154978
    Cl    -0.1584179778   -1.5919464262   -1.6027639289
    Cl    -0.4892023629    2.0787654163   -0.4142673821
    Cl    -0.4637883227   -1.0186027784    1.8175024658
