53
-2.4474390041683223e+03 frame 61   xyz file generated by TeraChem
    Co     0.1768874480    0.1896976004    0.1071778949
     C     1.8794772114   -0.6640080903    0.5302459123
     N     2.9116231620   -1.1262980389    0.8008691383
     C     4.4190080666   -3.0320254028    1.3993076797
     C     3.4149517977   -3.9843626215    1.2237232896
     C     3.6951179895   -5.3256225705    1.4766823783
     C     4.9916751441   -5.7264181772    1.9108684935
     C     6.0005922395   -4.7720782881    2.0857958931
     C     5.7227385570   -3.4376610448    1.8339056894
     H     2.4238973900   -3.6950692304    0.8900205221
     H     2.9246027126   -6.0783913220    1.3420111964
     H     6.9898573430   -5.0718173724    2.4154098851
     H     6.5006638138   -2.6898492219    1.9673862047
     H     5.1893641121   -6.7766231736    2.1032953818
     C     4.2417309683   -1.5481793469    1.1454422180
     H     4.8996762705   -1.2254933000    0.3269582918
     H     4.5349015472   -0.9740787013    2.0340680240
     C     0.2705345779   -1.4862925130   -4.3818747415
     C     1.2962872903   -0.6446404205   -3.9038344758
     C     1.2515093208   -0.1899034092   -2.5977006206
     N     0.2486711963   -0.5004926089   -1.7409202009
     C    -0.7434311362   -1.3043552011   -2.1966738801
     C    -0.7654433044   -1.8154322852   -3.4803601274
     S     0.1936447139   -2.1433264783   -5.9999214373
     H     2.1246088792   -0.3441043353   -4.5369162919
     H     2.0401482229    0.4522227328   -2.2174921016
     H    -1.5469132255   -1.5338691999   -1.5044006499
     H    -1.5876647759   -2.4569759351   -3.7812428479
     H     1.3190257287   -1.5658772506   -6.4709722997
     C    -3.9288137468    2.4677615486   -0.8770116299
     C    -2.7512190340    2.7129186685   -1.6130119206
     C    -1.5970171731    2.0142479150   -1.3029725456
     N    -1.5283804170    1.1044821319   -0.3010249767
     C    -2.6570744098    0.8729748730    0.4153231519
     C    -3.8556741430    1.5107474544    0.1586303978
     S    -5.4608910498    3.2603209548   -1.1600404611
     H    -2.7278546088    3.4328384259   -2.4244675626
     H    -0.6915852072    2.1813997903   -1.8769886468
     H    -2.5911132276    0.1481942201    1.2195092026
     H    -4.7255338632    1.2682191817    0.7607799713
     H    -5.0582279160    4.0508480515   -2.1776733163
     C    -0.1230445561    1.8924457162    4.5750265410
     C     0.1353418929    2.7362919352    3.4748538327
     C     0.2177993946    2.1940159287    2.2040952670
     N     0.0740946831    0.8703808731    1.9577309920
     C    -0.1662291583    0.0522345113    3.0115686167
     C    -0.2774367560    0.5135009392    4.3093287076
     S    -0.2652570223    2.4329470758    6.2311666323
     H     0.2659133942    3.8063470477    3.5983398207
     H     0.3986822541    2.8385434263    1.3491272136
     H    -0.2731641283   -1.0063796129    2.7946052312
     H    -0.4797093437   -0.1922348715    5.1087970572
     H    -0.0523098422    3.7457060219    6.0000827655
