11
-2.0785446185263027e+03 frame 70   xyz file generated by TeraChem
    Co     0.1319631228    0.2089042245   -0.1525241980
     S     2.2860072465   -0.2417180832    0.2719376806
     C     3.1809688336    0.6335576015   -0.8670960814
     N     3.8482746685    1.2172904184   -1.6316295314
     S    -0.7297698913   -0.7487825889   -1.9561093814
     C    -0.9344499488   -2.3743757291   -1.5182957134
     N    -1.0974214178   -3.5152156423   -1.3185375938
     S     0.4179708447    2.1986421248   -1.2533465776
     C    -1.1358258743    2.7716465629   -0.8991026449
     N    -2.1995104745    3.2044040295   -0.6669243623
    Cl    -0.6773954062   -0.7921276154    1.6326609624
