65
-1.5406067525445685e+03 frame 147   xyz file generated by TeraChem
    Cr    -0.2707109328   -0.4326975357    0.1952238494
     C     1.6198276194   -0.0673431572   -0.7397315675
     N     2.6269255961    0.1256481096   -1.2830958964
     C     5.0994238559   -0.0307802384   -1.1946632300
     C     5.7582416446    0.9103033300   -0.3957188668
     C     6.9270647934    0.5540533662    0.3046480263
     C     7.4376171849   -0.7405449220    0.2063173108
     C     6.7862760687   -1.6807385624   -0.5931908358
     C     5.6182992744   -1.3261504046   -1.2957694951
     H     5.3866221463    1.9297329783   -0.3287874599
     H     7.4362347437    1.2985803560    0.9084876370
     H     7.1851770748   -2.6854625153   -0.6915964364
     H     5.1393151422   -2.0622769254   -1.9366505216
     H     8.3448701768   -1.0109642900    0.7367999897
     C     3.8740240164    0.3682233061   -1.9933789157
     H     3.7984318822   -0.1931070307   -2.9299567988
     H     3.8771961687    1.4346695902   -2.2390932204
     C    -0.2833203469   -2.3934229600   -0.6659745709
     N    -0.2648729995   -3.4529684321   -1.1391168811
     C    -1.4362707435   -5.1289550759   -2.5452239986
     C    -1.5631619844   -4.6794204300   -3.8670068475
     C    -2.6778095107   -5.0522735702   -4.6416333419
     C    -3.6608437471   -5.8804295364   -4.1010283336
     C    -3.5346120422   -6.3364068290   -2.7871510397
     C    -2.4221687633   -5.9594302192   -2.0071596235
     H    -0.7908396612   -4.0569084331   -4.3123293075
     H    -2.7563972000   -4.7050809149   -5.6670217862
     H    -4.2846187958   -6.9965451113   -2.3627652326
     H    -2.3276175661   -6.3434369528   -0.9946119413
     H    -4.5124277557   -6.1811358399   -4.7027463331
     C    -0.2047360002   -4.7802717839   -1.7324105495
     H     0.7025063668   -4.7905739755   -2.3453221685
     H    -0.0574556551   -5.4753615902   -0.9001767239
     C    -0.3145210711    1.5530267292    0.9873787541
     N    -0.3960280896    2.6379126696    1.3909822682
     C     0.6462857162    4.4736153707    2.6968004990
     C     1.5851893587    5.3315828280    2.1194419024
     C     2.6544809640    5.8309909513    2.8883631832
     C     2.7859458452    5.4689200930    4.2309637381
     C     1.8503435112    4.6123625122    4.8103249314
     C     0.7780725303    4.1179336847    4.0466516861
     H     1.4835218308    5.6424370638    1.0827477401
     H     3.3665125456    6.5126661276    2.4335767666
     H     1.9333585150    4.3379160616    5.8572165532
     H     0.0393789494    3.4750376210    4.5193330827
     H     3.6035878137    5.8654769208    4.8242753129
     C    -0.5453192020    3.9955592050    1.8906512256
     H    -0.7149906758    4.6236484529    1.0108730885
     H    -1.4643953191    3.9924444124    2.4857866859
     C    -2.1684409305   -0.8265889325    1.1023611737
     N    -3.2064661393   -1.0753020910    1.5577324498
     C    -4.8771322824   -0.6485013198    3.3459836315
     C    -4.4690344691   -1.1047797137    4.6060906361
     C    -4.8619624425   -0.4193980783    5.7706726101
     C    -5.6664774472    0.7164427293    5.6776704880
     C    -6.0794480510    1.1711131543    4.4238451321
     C    -5.6845469495    0.4892797987    3.2563156788
     H    -3.8669350763   -2.0056309839    4.6967092641
     H    -4.5510893998   -0.7930645960    6.7412508926
     H    -6.7224819499    2.0418859046    4.3418692985
     H    -6.0361559001    0.8404040695    2.2893966438
     H    -5.9846984073    1.2343694566    6.5767519673
     C    -4.5120985399   -1.4252566564    2.0967205608
     H    -5.2260202530   -1.2474425650    1.2864362848
     H    -4.4755347545   -2.5029492872    2.2856968812
