9
-5.9766785560227800e+02 frame 97   xyz file generated by TeraChem
    Co    -0.0025337785    0.0022193524    0.0007406520
     C     1.9097057715   -0.3106025263   -0.3346741663
     O     3.0007450830   -0.4885363248   -0.5270688633
     C    -0.2897145440    0.3059539494   -1.9203328558
     O    -0.4538904899    0.4797746606   -3.0166522608
     C    -1.9143502388    0.3155029602    0.3360289887
     O    -3.0052166542    0.4949060236    0.5281238128
     C     0.2922185410   -0.3092326069    1.9198194134
     O     0.4629505311   -0.4899896098    3.0140052818
