24
-7.1471726620831566e+02 frame 35   xyz file generated by TeraChem
    Fe     0.0502714175    0.4845931277   -0.0674619800
     C     2.2976205736   -1.2970071367   -0.8716633502
     O     1.7742561361   -0.2991131994   -0.3732190321
     H     1.6928074410   -2.1158874411   -1.2829437050
     H     3.3911560916   -1.3643615651   -0.9034394986
     C    -1.7925753358   -0.4284869815   -2.0739256988
     O    -1.0268217102   -0.6974523982   -1.1427009050
     H    -2.2861273121   -1.2520053796   -2.6024693733
     H    -1.9904796464    0.6062707488   -2.3829943164
     C    -1.9434931301    2.4986160849    0.8455103847
     O    -1.3164743242    1.8456537314    0.0081158942
     H    -1.8841457254    2.2633990180    1.9159634739
     H    -2.5732021104    3.3310717008    0.5108978125
     C    -0.3852894417   -1.4956965101    4.1690299355
     C    -1.2012592982   -1.9493752209    3.1306298703
     C    -1.0806931199   -1.3740702875    1.8711027981
     N    -0.1918908496   -0.3844908465    1.6291398053
     C     0.6087031717    0.0518868643    2.6313534865
     C     0.5359581505   -0.4765573728    3.9129591796
     H    -0.4612789662   -1.9318425710    5.1604489334
     H    -1.9246160476   -2.7427704655    3.2861856158
     H    -1.6852231990   -1.7022348777    1.0343506016
     H     1.3264720940    0.8334159387    2.3877636222
     H     1.1953447079   -0.0982097398    4.6868288295
